id,created_at,text
952662794301853697,2018-01-14 22:04:44,@DiegoLeonU @ShapeShift_io Fees are too high on the Bitcoin network. It doesn't make sense to enable orders below $100-$200 unfortunately.
952658730587492352,2018-01-14 21:48:35,"@mehranx1980 I'm sorry for the situation. We are hiring as fast as possible, and improving processes to be more efficient per ticket."
952658444506591237,2018-01-14 21:47:27,@DiegoLeonU @ShapeShift_io ShapeShift integrated SegWit like three months ago...
952369528389840896,2018-01-14 02:39:24,"@hugohanoi Not true. Wealth is created in surplus, as a sum that is bigger than its parts. Vastly more wealth exist‚Ä¶ https://t.co/68ytS7dPKK"
952278095058280448,2018-01-13 20:36:04,RT @ShapeShift_io: ü¶ä‚ùìWhat's up with the customer support wait times? https://t.co/t2kKVAlEve https://t.co/tAVjfPKFWT
951849575685480448,2018-01-12 16:13:18,"RT @iamjosephyoung: JTBC: South Korean gov't ""shocked"" at the number of citizens  requesting the removal of Justice Minister and Finance Mi‚Ä¶"
951684216667873282,2018-01-12 05:16:13,"RT @iamjosephyoung: In an official announcement, South Korean government reaffirms there will be NO TRADING BAN for #cryptocurrency market‚Ä¶"
951518689903263744,2018-01-11 18:18:28,"Rhys Lindmark podcast #29 w/ Erik Voorhees, ShapeShift: Bitcoin Governance and Constraints to Solve It‚Äô on‚Ä¶ https://t.co/IlRKCelwbB"
951508916046671872,2018-01-11 17:39:38,"Corporate tax rates cut, and employees benefit from rising wages. This is the proper way to get wages to rise, by a‚Ä¶ https://t.co/BBFmVPvxFi"
950782566604263424,2018-01-09 17:33:23,"@Angel_of_Merkle @milklizardmayo @PeterSchiff Agree. I've been a fan of him for years, and many/most of his economic thoughts are spot on."
950774086342291457,2018-01-09 16:59:41,"I'll be debating Peter Schiff re Bitcoin, live in person, on July 2nd, at the Soho Forum in NYC‚Ä¶ https://t.co/yhcELUygaW"
949843533178941440,2018-01-07 03:22:00,@YouTube @The88N8 loved it! Where can I get that hoodie?
949840990331846656,2018-01-07 03:11:53,"RT @coindesk: What did @ErikVoorhees learn about cryptocurrency in 2017?

CoinDesk sits down with its #8 Most Influential selection: https:‚Ä¶"
949840833376694272,2018-01-07 03:11:16,"This guy cryptos.
 88N8 Digital Gold  (Prod. Pyrodagod) Directed by Keem Ibarra https://t.co/qWzzSx9eRT via @YouTube #bitcoin #crypto"
949314763883937792,2018-01-05 16:20:51,@dcowilkie @ShapeShift_io 5000 XRP is way above the order limit. The support team will get to your ticket as soon a‚Ä¶ https://t.co/xCJfQRHALl
949114183261437953,2018-01-05 03:03:49,"@brianchain1984 Crypto as an asset class is in a huge speculative bubble, if I'm being honest. Long term value of s‚Ä¶ https://t.co/9yRSdDd7DT"
949114006530228224,2018-01-05 03:03:07,@lmrankhan LOL as if we've had a problem with people buying BTC this year?
949112798017077248,2018-01-05 02:58:19,I fully support the Bits standard... I'll talk with my team about how to best start rolling it out. https://t.co/phb2LMoJH4
948981066307653633,2018-01-04 18:14:52,NEO is now on https://t.co/UPChibh1H8  cc @ShapeShift_io
948932707886747648,2018-01-04 15:02:42,"Two major theme predictions for crypto in 2018:  1) Blockchain-based gaming and tokenized game assets, and 2) token‚Ä¶ https://t.co/0BrEbL7Cn7"
948628462083874816,2018-01-03 18:53:44,RT @SaltLending: SALT is now accepting both #Bitcoin and #Ethereum as #loancollateral. Apply for your loan today: https://t.co/AMQ1cauu05.‚Ä¶
948628346891509760,2018-01-03 18:53:17,"15 is spot-on. Please, everyone, stay away from BitConnect. I don't throw the S word around easily... but BitConnec‚Ä¶ https://t.co/Xb9BPL9Gk6"
948224983334916096,2018-01-02 16:10:27,RT @coindesk: Most Influential in Blockchain 2017 #8: Erik Voorhees https://t.co/zRYYDmCsue https://t.co/gpcYtnYuWH
948220586827964416,2018-01-02 15:52:59,"@SGBarbour Eh, that's really bubble-fumes getting to your head. Only half the world can, at max, be considered early."
948219542270078976,2018-01-02 15:48:50,"In the dotcom bubble, institutions/funds got in first, and mainstreet investors got in last. In the crypto bubble,‚Ä¶ https://t.co/L0ttVlgypw"
948218300709982210,2018-01-02 15:43:54,Green day in the crypto markets to kick off 2018 https://t.co/2JZAgbHdE1 #bitcoin #litecoin #ethereum #ripple
948210719862018048,2018-01-02 15:13:47,"RT @rogerkver: Sell the Post Office to Amazon.  
@realDonaldTrump 
@JeffBezos https://t.co/p5dJJVBwVe"
948210264444493824,2018-01-02 15:11:58,"@AmberBaldet @coindesk Congrats Amber. Ignore the trolls, they don't build."
948208575108866048,2018-01-02 15:05:15,Fred Wilson: What Happened in 2017 https://t.co/7xMimD2CnK
948205583810867200,2018-01-02 14:53:22,CoinDesk:  Erik Voorhees on ShapeShift and Digital Assets https://t.co/yt5T2smN01 via @YouTube #bitcoin #ethereum
948031546291732480,2018-01-02 03:21:48,"This is amazing, where can I buy it? https://t.co/s8VKxdneHn"
947994430606229504,2018-01-02 00:54:19,"@jdaxiom @coindesk We don't, but we will get to it. So much engineering to do :/"
947958575615246336,2018-01-01 22:31:51,Honored to be named #8 on CoinDesk's Blockchain Most Influential 2017... and #1 &amp; #2 spots were  great picks :)‚Ä¶ https://t.co/hI6K2Cx5Fc
947722684216918017,2018-01-01 06:54:30,Happy New Years from @ShapeShift_io #bitcoin #ethereum https://t.co/kNnLydLxvY
947598071680057344,2017-12-31 22:39:20,"Please don't drink and drive tonight. NYE 2019 is also going to be good, and you don't want to miss it. Uber exists. Use it! #NYE"
947588222942552064,2017-12-31 22:00:12,"PSA: ShapeShift will be offline for a couple hours for end of year work, starting momentarily. @ShapeShift_io"
947587518978965504,2017-12-31 21:57:24,@CharlieShrem @DataTranslator @GabeCoin @iravagecoins @watersNYC And we laughed that some day BTC might be worth $1000 ;)
947532038243942400,2017-12-31 18:16:56,@clintonjtallman @Rassah I'd love to try that experiment... please stop taxing and regulating me so it can be tried.
947531860967538688,2017-12-31 18:16:14,@clintonjtallman Human nature... like that the desire for power tends to corrupt? Or that all people are greedy/sel‚Ä¶ https://t.co/P2PoUr5JMT
946890742743437312,2017-12-29 23:48:40,"RT @ShapeShift_io: ü¶ä ‚ò†Ô∏è ShapeShift's Skeleton code is free &amp; open-source. We offer a template that is customizable, giving integrators the‚Ä¶"
946890269206573056,2017-12-29 23:46:47,RT @BitfuryGeorge: Ripple overtaking Ether and valued at $75BLN is probably single most WTF Moment for 2017 !
946889855375622144,2017-12-29 23:45:08,"He who is unfit to serve his fellow citizens wants to rule them.
‚Äï Ludwig von Mises"
946889769644048384,2017-12-29 23:44:48,RT @SaltLending: The SALT Loan Application is now available in member dashboards.  Become a member here: https://t.co/YZZfcCSNtd  #blockcha‚Ä¶
946486328572616704,2017-12-28 21:01:40,Watch out for libertarians... they may leave you alone.
946485028384489473,2017-12-28 20:56:30,"That's a bit of a stretch, but I'm excited about SALT too ;) https://t.co/lz80koz7ND"
946484811790565376,2017-12-28 20:55:38,The prognosticators of the status quo have never been pleased about Bitcoin's existence... https://t.co/mXShzfyoc9
946467287950802944,2017-12-28 19:46:00,Video PSA: ShapeShift Customer Support Update https://t.co/1oTEXTbe2B @ShapeShift_io #bitcoin #ethereum
946180659399114752,2017-12-28 00:47:03,Bitcoin Commercial: What Is It and How Does It Work? https://t.co/q5gJf9KL6x via @YouTube
946169925172731904,2017-12-28 00:04:23,"@CryptoCurrFreak Did the internet pre-2015 feel ""full of data discrimination?""  The entire internet formed and achi‚Ä¶ https://t.co/VudZGJ9Pui"
946169741164519424,2017-12-28 00:03:39,@azikate @DrR1pper @JayFjve @aminor_1979 ISP's are not responsible for your freedom. You are. And if you work to en‚Ä¶ https://t.co/g8KaXm7boP
946169353170329602,2017-12-28 00:02:07,"@MySiacoin Hmmmm I guess we have different perspectives... the internet was pretty great before 2015, and is still‚Ä¶ https://t.co/HMHH3XthPv"
946169135142125568,2017-12-28 00:01:15,"@azikate @aminor_1979 ummm no. I'm saying get the government out of everything related to the internet, entirely. N‚Ä¶ https://t.co/LZr0g269wY"
946168729355743232,2017-12-27 23:59:38,"@devevangelist So then repealing the 2015 rule is meaningless, because it only codified something that already existed?"
946167204587831298,2017-12-27 23:53:35,RT @SaltLending: SALT loans are live.  Read more: https://t.co/Cv7k2gL6vd https://t.co/7GXlvwv718
946128977365680128,2017-12-27 21:21:41,@azikate What does that mean?
946128864941449216,2017-12-27 21:21:14,@b1rkh0ff I don't see why any of those anecdotes justify politicians seizing more power and removing choice from market participants.
946128491640057856,2017-12-27 21:19:45,"@Tikonu And when other large corporates are disseminating 4k video to a hundred million people, you don't think ISP‚Ä¶ https://t.co/TCsVlKEfs5"
946128072201224192,2017-12-27 21:18:05,"@aminor_1979 I agree that's a problem... but that problem is caused by government regulation, so perhaps instead of‚Ä¶ https://t.co/Pm687d68Og"
946127889124040704,2017-12-27 21:17:21,"@KevinKelbie I don't remember paying any such thing prior to 2015, when Net Neutrality didn't exist."
946127638388555776,2017-12-27 21:16:21,@theosint So suddenly in 2015 all ISPs changed their behaviors and desire for profit? The internet was created and‚Ä¶ https://t.co/0zsD7whLK8
946125611646435329,2017-12-27 21:08:18,Ross Ulbricht Files Appeal to the Supreme Court on His Life Sentence Without Parole https://t.co/9GYjCSTzUC
946125040767995904,2017-12-27 21:06:02,"If Net Neutrality (ie the granting of more power to government regulators) is so important to the internet, and Net‚Ä¶ https://t.co/Yda61jYboB"
946047164609892352,2017-12-27 15:56:35,"Exclusive: Telegram to Release Blockchain Platform, Native Cryptocurrency https://t.co/LSsjStVQY2 via @Cointelegraph"
946037604209872896,2017-12-27 15:18:36,"@evan_van_ness @EthereumJ @ShapeShift_io Generally not the case, though we have a backlog of tickets about a week o‚Ä¶ https://t.co/sFGfIrutWB"
946037341516455937,2017-12-27 15:17:33,"@obsiyea Don't invest more than you can afford to lose, and learn how to use it safely."
946037068031057920,2017-12-27 15:16:28,"@VitalikButerin Nothing inconsistent about that at all.  People should be free, and they *should* use that freedom‚Ä¶ https://t.co/b8AZacuSGu"
945748679922655232,2017-12-26 20:10:31,"RT @theonevortex: In case you missed it, #lightning RC1 has been released and mainnet tx's have been completed. The mainnet beta is on the‚Ä¶"
945362155934584832,2017-12-25 18:34:36,@francispouliot_ @AnselLindner You continue working hard to misunderstand and misconstrue me. Happy to chat out of twitter if u want.
945303588540051461,2017-12-25 14:41:53,Ho ho hodl!! Merry Cryptmas!!!
945003332543713280,2017-12-24 18:48:46,@BeerdHead @m8tion @cburniske @PikettyLeMonde You have a low threshold of evidence. I am anti-state... the very opp‚Ä¶ https://t.co/Q6O2rscNnV
945002809396576256,2017-12-24 18:46:41,@francispouliot_ @AnselLindner Doubling capacity does more than bring fees down by half. Fees rise exponentially to‚Ä¶ https://t.co/jrOJZfheZS
945001648488771590,2017-12-24 18:42:04,"@mohamedmansour @_jonasschnelli_ Internet grew at least as fast, so how is that relevant to this analogy?"
945001492913647616,2017-12-24 18:41:27,@BeerdHead @m8tion @cburniske @PikettyLeMonde In what way does my ideology put me in the ‚Äúradical right?‚Äù I‚Äôm curious.
944999251515281410,2017-12-24 18:32:33,@verretor You mean a hundred years from now?
944999064688459783,2017-12-24 18:31:48,"@cburniske @PikettyLeMonde He could‚Äôve just called the book, Das Kapital in the 21st Century."
944998631047753733,2017-12-24 18:30:05,"@_jonasschnelli_ The difference, of course, is that Bitcoin used to have low fees. It has regressed - gotten worse‚Ä¶ https://t.co/MF9F5Bjs7f"
944642866470518784,2017-12-23 18:56:24,Good Saturday read from the NYT:  The Bitcoin Boom: In Code We Trust https://t.co/oTuZiNgQY2
944631992234123264,2017-12-23 18:13:12,@blitz79 @paulkrugman Oh we know why they exist.
944631749664940032,2017-12-23 18:12:14,"@paulkrugman A Bitcoin can actually buy a very nice full-sized violin, Paul."
944431149438218240,2017-12-23 04:55:07,"RT @NeerajKA: Bitcoiners on Dec 16, 2017 vs. Bitcoiners on Dec 22, 2017 https://t.co/76oQPMmD5i"
944343218220564480,2017-12-22 23:05:42,"@Blandermania @BitPay We did, two months ago."
944335493516447744,2017-12-22 22:35:01,"RT @aantonop: This is a good time to step away from screens. 

Decorate your Merkle Tree
Water your bloom filters
Celebrate Cryptmas with y‚Ä¶"
944319903800082432,2017-12-22 21:33:04,Why We're Updating the Minimum BitPay Payment Amount to $100 https://t.co/BxniSCnGGz via @bitpay
944292885108682752,2017-12-22 19:45:42,"@AnselLindner I worked with others to propose an option a few months ago, SegWit2x.  The first part was accepted (S‚Ä¶ https://t.co/QlbgQzBWro"
944281228613599232,2017-12-22 18:59:23,@stp_ip lol you're saying that's okay?!? $4800 to make one digital payment?! Cheaper to ship bricks of gold!
944276446951874560,2017-12-22 18:40:23,@UncleDiaz The solution is SegWit and moderately bigger blocks (2-8MB) to enable higher capacity for the next coupl‚Ä¶ https://t.co/G4phzpR31c
944275022369009664,2017-12-22 18:34:43,"When it's cheaper (and sometimes faster!) to FedEx private keys to someone than to send a digital payment, Bitcoin‚Ä¶ https://t.co/aWWjs7G1H6"
944265602637578240,2017-12-22 17:57:17,RT @DavidShares: It‚Äôs mind boggling to hear people say Bitcoin blocks should be so small that you can run full nodes on tiny hard drives to‚Ä¶
944226603789197313,2017-12-22 15:22:19,@KryptykHex Umm well this year at least BTC isn‚Äôt even in the top 20 best appreciating cryptos.
944225872118145024,2017-12-22 15:19:25,@djjawed5 @jratcliff @NguyenQ09559791 It has 4-8x the capacity... so objectively it can handle X transactions per s‚Ä¶ https://t.co/RVxgevyh7w
944225274148745216,2017-12-22 15:17:02,"@syn998 Nope, over $40 per avg tx"
944225158935359488,2017-12-22 15:16:35,@dmadalani Black Friday refers to retailers finally getting into the black (profitable) for the year. Most people t‚Ä¶ https://t.co/Dnq4T3aZwK
944222202555224064,2017-12-22 15:04:50,@simulx @luckycharmsyo @JohnSilvestro1 You perhaps don't realize we'll be one of the biggest users of Lightning?
944222046380281856,2017-12-22 15:04:13,@TokenHash Fiat sucks... I'd rather avoid currency that is perpetually debased and centrally controlled.
944221460440240129,2017-12-22 15:01:53,Today is crypto's Red Friday. Brutal...  https://t.co/2JZAgbHdE1 #bitcoin #ethereum
944218760436645888,2017-12-22 14:51:09,@egg_descrambler A 2-8MB block doesn't need to keep increasing forever in order to buy significant time for the lay‚Ä¶ https://t.co/dZX1LI3niQ
944071465674010625,2017-12-22 05:05:52,"This is kinda how I feel too... I'm just not convinced ""digital gold"" is a sustainable use case when one can easily‚Ä¶ https://t.co/2pIUJjqX1O"
944070977440251905,2017-12-22 05:03:55,"@jratcliff @NguyenQ09559791 Like Litecoin, Dash, ETH or BCH... chains that still work as peer to peer electronic cash systems."
944065022363176960,2017-12-22 04:40:15,"@chartpiker Yes, two months ago."
944064084562952192,2017-12-22 04:36:32,"Fellow Bitcoiners, are you ever going to realize how problematic these fees are getting? Avg fees now over $40 per‚Ä¶ https://t.co/mWX3rnOzNS"
944061001204301824,2017-12-22 04:24:17,RT @OneMorePeter: Delighted to announce @provoost as our first dedicated open source protocol developer. He's going to start by focusing on‚Ä¶
944060828499636224,2017-12-22 04:23:35,Don't worry Gavin it's just spam. https://t.co/rX2ChfZENc
943900093341511680,2017-12-21 17:44:53,https://t.co/pLrE0gwqNz
943870530901430274,2017-12-21 15:47:25,@Pladizow We implemented SegWit 2 months ago. Please use facts when talking.
943870256606572544,2017-12-21 15:46:20,"@Motztante I've been one of SegWit's most active supporters since it was announced. And to date, my company (ShapeS‚Ä¶ https://t.co/wgSOt4zB1Z"
943869950418149376,2017-12-21 15:45:07,"@Raffaelic If you care about accuracy, Roger is not barred from the US. And he was not involved with or supportive of SegWit2x."
943869682326622209,2017-12-21 15:44:03,"@SiberianOracle And tell me what value is being stored, exactly, if it is not a useful platform?"
943869517800894464,2017-12-21 15:43:23,"@soundmazedj At $40 fee, we're well past coffee. Even a $250 purchase now doesn't make sense with Bitcoin."
943869175369486336,2017-12-21 15:42:02,@mikehogan_ Price of BTC is one variable for sure.  But the price of fees as measured in BTC itself (ie ignoring ex‚Ä¶ https://t.co/erpBoJZiye
943868838231277568,2017-12-21 15:40:41,"@CryptoPoland I'm looking at average fee, not highest fee."
943864611207548928,2017-12-21 15:23:54,Avg bitcoin transaction fees over the past year. Now averaging around $40 per tx. Higher than most bank wires.  https://t.co/Q0Cxdt6Bzd
943863612250128385,2017-12-21 15:19:55,"@marzieh_aslani Hello Marzieh, I'm sorry to hear of the delay. We have over 10 full time support working through ti‚Ä¶ https://t.co/pONo3wlS6m"
943861442410840064,2017-12-21 15:11:18,@benwikler Tax heist?  The heist is that the taxes are stolen from the public in the first place. Reducing taxes means to reduce the heist.
943860997000921088,2017-12-21 15:09:32,The blinkies have become almost overpowering... Realtime crypto prices at https://t.co/EBzjWyuUbu #bitcoin‚Ä¶ https://t.co/eIJThhwURk
943583240777953280,2017-12-20 20:45:50,@W4BILy5isZVVzJq @ShapeShift_io Unadvisable because the BTC mining fee is over $20 due to the BTC network congestion.
943583015300612097,2017-12-20 20:44:56,@targa4_s @ShapeShift_io We activated it two months ago.
943582835092340736,2017-12-20 20:44:13,"@douglaskphoto @ShapeShift_io We implemented SegWit 2 months ago. Thanks for your insights, though."
943582676044222464,2017-12-20 20:43:35,@sambhavratnakar @ShapeShift_io We did... like two months ago. We are perhaps the biggest user of it.
943582356945768448,2017-12-20 20:42:19,@haydentiff @Falkvinge @rogerkver lol why do people like that have to exist? I wonder what he's like in real life.
943537605785694208,2017-12-20 17:44:29,@some_guy_532135 @slushcz I'm done with scaling discussion. I'm not done calling out bullshit in the industry when I see it.
943535247223791616,2017-12-20 17:35:07,Official ShapeShift Instagram account https://t.co/Ep1D8MprvX #bitcoin #ethereum
943533919265099776,2017-12-20 17:29:51,"@slushcz Both of your statements are, themselves, politicized propaganda.  Coinbase was never a Bitcoin company?  Absolute nonsense."
943531616554557441,2017-12-20 17:20:42,"RT @ShapeShift_io: üìù PLEASE NOTE: Our Bitcoin miner fee is set very high right now due to Bitcoin network congestion, so please avoid small‚Ä¶"
942924019925262337,2017-12-19 01:06:19,"Good advice, all of it https://t.co/IzDuCC3t1b"
942923370365992961,2017-12-19 01:03:44,RT @MiguelCuneta: The BEST place to HODL! https://t.co/UgICjyw7HD
942914221649494018,2017-12-19 00:27:23,@CryptoGeniuz lol wow
942777831058231296,2017-12-18 15:25:25,"For all those who have recently gotten rich with crypto, consider that one of the most rewarding uses for that weal‚Ä¶ https://t.co/trtUOYDvMv"
942775783801720833,2017-12-18 15:17:17,Very excited about this... ‚ÄúZeroLink: Massive Scale CoinJoin Is About To Be Deployed - Participate In The Final Tes‚Ä¶ https://t.co/aVgrNaQrMX
942763270858870784,2017-12-18 14:27:34,Bitcoin Takes Bigger Wall Street Stage With Smooth CME Debut - Bloomberg https://t.co/QjWLhGpbhB
942182608825286656,2017-12-17 00:00:13,"RT @coindesk: Ethereum, Ripple And Litecoin Have Arrived on Bloomberg Terminals https://t.co/nJtP3q5EFy https://t.co/0Aa8w07qZN"
942181320658108416,2017-12-16 23:55:06,"RT @CMEGroup: Trading in our Bitcoin futures begins tomorrow. Follow, trade &amp; learn more here: 
https://t.co/B4rrhOQfzo https://t.co/bycO9O‚Ä¶"
941793226897289216,2017-12-15 22:12:57,@stv_prc @CNBC I think you're confusing Bitcoin with banks.
941793119674048512,2017-12-15 22:12:32,RT @CNBC: BREAKING: TD Ameritrade to allow bitcoin futures trading Monday https://t.co/E2Q5DsFCzl
941750153882435584,2017-12-15 19:21:48,KeepKeys are in stock https://t.co/1kvm8vW1Zy  (Bitcoin and Ethereum hardware wallets) https://t.co/TUBEc84UrJ
941749865792520193,2017-12-15 19:20:39,Yahoo Finance makes video to teach about Bitcoin hardware wallets https://t.co/mhox5z0FhM via @YahooFinance‚Ä¶ https://t.co/WvCUbhpqAv
941523130815672320,2017-12-15 04:19:41,"Money being controlled and managed by the government will, some day, appear as arbitrary and distasteful as religio‚Ä¶ https://t.co/5lKQHQOt10"
941374146491179013,2017-12-14 18:27:41,Bloomberg article on SALT Lending (use Bitcoin as collateral to get fiat loans) https://t.co/vIWFPUC5U4 via‚Ä¶ https://t.co/09Hy4SdBoT
941284094184448000,2017-12-14 12:29:50,"Venezuelans Seeing Bitcoin Boom as Survival, Not Speculation https://t.co/muMTV5UGRS"
940839467262365696,2017-12-13 07:03:03,@CoinCadence Bits is better
940370211391328256,2017-12-11 23:58:24,"RT @msantoriESQ: I confess, I doubted I'd see a definitive statement from SEC clarifying that a great swath of potential token sales would‚Ä¶"
939813406089064448,2017-12-10 11:05:51,"Bitcoin can be *both* in a bubble and  underpriced, simultaneously. It depends on your timescale. Remember the poor‚Ä¶ https://t.co/53CmyGtCPU"
939808486891892736,2017-12-10 10:46:18,"On this point, I agree with Roger, though I‚Äôm still more bullish on BTC than BCH https://t.co/BJnZwFRZxb"
939808483628802053,2017-12-10 10:46:17,WSJ: Bitcoin‚Äôs rise in 2017 has moved it into the investing mainstream and cultural spotlight https://t.co/E9xH8iMjo6 via @WSJ #finance
939793059629453312,2017-12-10 09:45:00,APMEX (large precious metals dealer) now accepting Bitcoin https://t.co/UgTRxfQRVt
939559490231320576,2017-12-09 18:16:53,Bulgaria Government Shocked To Discover It Owns $3 Billion In Bitcoin | Zero Hedge https://t.co/oBWugWCi9R
939342596219969537,2017-12-09 03:55:01,@cburniske It‚Äôs not an illusion if the thing works as advertised
939342182409912320,2017-12-09 03:53:23,Bwahahahaha. Ken deciding Bitcoin is okay is making me more bearish now... https://t.co/bdlQGrePQW
939335910105034752,2017-12-09 03:28:27,Wow.... ‚ÄúCoinbase Becomes Apple Store‚Äôs Top App‚Äù by @Mike_K_Spencer https://t.co/eyOHpVxS9k #bitcoin #ethereum #mainstream
939213342521966593,2017-12-08 19:21:25,@eyeone @rogerkver @BTCTN @JihanWu @JiangZhuoer @JimmyWinMedia @CalvinAyre @officialmcafee @brian_armstrong‚Ä¶ https://t.co/zh4vsMhQfh
939212446878724096,2017-12-08 19:17:51,@rogerkver @BTCTN @JihanWu @JiangZhuoer @JimmyWinMedia @CalvinAyre @officialmcafee @brian_armstrong @gavinandresen‚Ä¶ https://t.co/C21Q1yxTot
938843071650729984,2017-12-07 18:50:05,"@WahWhoWah @Pocket It's still online, but moved to my newer blog:  https://t.co/9WHB2KOwub  (and thanks for the kin‚Ä¶ https://t.co/hgdVIzizbn"
938788362437251072,2017-12-07 15:12:42,RT @lopp: And now let's cut over to @maxkeiser for an update on the bitcoin exchange rate. https://t.co/8R01Lx7zqZ
938787458577240064,2017-12-07 15:09:06,RT @exodus_io: The Bitcoin network is extremely congested with &gt;140k unconfirmed transactions (vs the usual 20-30k). Transfers are taking m‚Ä¶
938625224882364416,2017-12-07 04:24:27,@joshuasmarx Well said!
938622618680287232,2017-12-07 04:14:05,"For anyone who is newly interested in #Bitcoin, instead of going and blindly buying it, go instead and learn. Watch‚Ä¶ https://t.co/yAJCmc9iXG"
938607968173432835,2017-12-07 03:15:52,@tobydownton Wow - thank you for being the only person on the internet who admits being wrong and apologizes!  Wish‚Ä¶ https://t.co/iGAGNMOgpD
938606247141453829,2017-12-07 03:09:02,"The community raised over $700,000 worth of Bitcoin in a matter of hours for Andreas from all over the world, which‚Ä¶ https://t.co/W2MG5NdMmW"
938493803513634816,2017-12-06 19:42:13,"RT @UPSLongitudes: A virtual #currency like #Bitcoin could open up new markets, while speeding the worldwide exchange of goods: https://t.c‚Ä¶"
938491298260049920,2017-12-06 19:32:16,Very exciting! https://t.co/H9LrERAMQf
938488076317233152,2017-12-06 19:19:28,@LgSarge1 @steam_games ShapeShift was one of the earliest adopters of SegWit and continues to be one of its biggest‚Ä¶ https://t.co/GOzPn0Jd1r
938479533161713664,2017-12-06 18:45:31,Big News for Bitcoin: ‚ÄúLightning Protocol 1.0: Compatibility Achieved ‚úÖ‚Äù by Lightning Developers https://t.co/muBGFextIx
938477867351945216,2017-12-06 18:38:54,Steam no longer accepting Bitcoin due to high fees @steam_games: https://t.co/jPtXRPi8ZK
938477041845813248,2017-12-06 18:35:37,"@tobydownton He's not a multimillionaire, dipshit."
938464555591647232,2017-12-06 17:46:00,@Kaaadams Hi!
938464290356342784,2017-12-06 17:44:57,"@Joshua52438407 Recommending one language as ""official"" is one thing. Coercing people into using something and form‚Ä¶ https://t.co/F8gpIqSqc1"
938462484272267264,2017-12-06 17:37:46,@CryptoPrick He has contributed immensely to building a system that frees mankind from fiat and central banking. Worthy of every donation.
938460467898433536,2017-12-06 17:29:45,"If you've ever learned about, participated, used or benefited from Bitcoin in any way, please donate to Andreas M.‚Ä¶ https://t.co/0IRn2i9oZT"
938421853508526080,2017-12-06 14:56:19,Good news: Ethereum‚Äôs CryptoKitties are probably not securities. https://t.co/3idHr6FEKi via @coincenter #DigitalAssets #blockchain
938394462534844417,2017-12-06 13:07:29,"There should be no monopoly on money. A true market economy requires freedom in the production of all goods, most o‚Ä¶ https://t.co/zr3n31686x"
938247512787369984,2017-12-06 03:23:33,"RT @RonPaul: A wealthy person wants to gift you $10,000. You get to choose in which form you'll take the gift. But there's a catch: You mus‚Ä¶"
937801481217908736,2017-12-04 21:51:11,"RT @AlenaSatoshi: RSK just launched.
2+ years of work and this is just the beginning :)
good luck @GabrielKurman @dieguito üòò https://t.co/z‚Ä¶"
937800800868368384,2017-12-04 21:48:29,PSA: BitConnect is a scam.  Stay safe out there.  The BitConnect scam exposed ‚Äî Steemit https://t.co/HUPXDSP8TA
937726278186057728,2017-12-04 16:52:21,Homepage of CBOE right now  https://t.co/IXlIHIgLNd  #bitcoin #finance #futures #forex
937725392328146944,2017-12-04 16:48:50,CBOE announces bitcoin futures to start trading Sunday https://t.co/p75XWCZjh6 #finance
937022306936688640,2017-12-02 18:15:01,"Bitcoin is the sixth most valuable currency in the world, and achieved this in eight years of existence, despite (o‚Ä¶ https://t.co/XgmyA0sC8D"
936700373099675648,2017-12-01 20:55:46,Bloomberg: Bitcoin Futures Are a Bet That Digital Money Will Take Over the World https://t.co/Un3csPmSSF via @technology #finance
936631838021320705,2017-12-01 16:23:26,Favorite new term for fiat: ‚Äúsnail paper‚Äù
936390749884579840,2017-12-01 00:25:26,Fed considering digital currency: official https://t.co/8odgcbrLES (the USD is already a digital currency)
936322677870010368,2017-11-30 19:54:57,CNBC: Bitcoin exchange Coinbase has more users than stock brokerage Schwab https://t.co/ews1k8Xu8W
936059315147780097,2017-11-30 02:28:26,Good guy CoinBase.   ‚ÄúCoinbase Obtains Partial Victory Over IRS‚Äù by David Farmer https://t.co/rKUM0eqMMb
935946220324847616,2017-11-29 18:59:02,@cuzomano Radical individualism doesn‚Äôt mean ‚Äúfuck everyone else.‚Äù It means ‚ÄúI own myself‚Äù.
935945622678470656,2017-11-29 18:56:40,@spotlessgr Someone who you don‚Äôt know and have never met is ‚Äúyour people?‚Äù
935945241718165505,2017-11-29 18:55:09,@opendotgov Voluntary cooperation is not what I mean when I refer to collectivism. Definition: treating people acco‚Ä¶ https://t.co/OnyBsDptCU
935943291350040576,2017-11-29 18:47:24,"@wintermute616 @A_Hannan_Ismail @JosephEStiglitz Mr Stiglitz is making the threats, desiring criminalization of Bit‚Ä¶ https://t.co/4HbSA6FLYZ"
935942653434195968,2017-11-29 18:44:52,@opendotgov Ummm no.
935942477839712256,2017-11-29 18:44:10,@cuzomano Explain?
935942240794320896,2017-11-29 18:43:13,@spotlessgr The idea that some people are better because they have a special piece of paper with a flag on it? Yeah... that‚Äôs absurd to me.
935940834440052736,2017-11-29 18:37:38,"I categorically denounce all forms of collectivism. Racist, nationalist, statist, sexist, etc. https://t.co/rdzpcMO4On"
935939615441092609,2017-11-29 18:32:47,@A_Hannan_Ismail @JosephEStiglitz I‚Äôm guessing he simply called for more regs and state intervention?
935928583024885760,2017-11-29 17:48:57,And here we have Nobel prize winning Joseph Stiglitz declaring Bitcoin should be outlawed and that government needs‚Ä¶ https://t.co/vAuL2qfJqe
935725904633966592,2017-11-29 04:23:35,Even gramps is up https://t.co/kVwi5SIowk #bitcoin #finance #moonfumes
935721809038655488,2017-11-29 04:07:18,"My 94-yr old grandfather, upon observing the &gt;$10k Bitcoin price, suggests we switch common naming to a smaller uni‚Ä¶ https://t.co/bJJSB83Pig"
935718149210521600,2017-11-29 03:52:46,"RT @zerohedge: Bitcoin is up 11,000,000% in five years"
935682654933958656,2017-11-29 01:31:43,MOOOOOOOON!!!!!   I have dreamed of this day. #bitcoin https://t.co/qD9HkGQBIC
935550823509131265,2017-11-28 16:47:52,"@t0nil0 @Abraxas1887 Tether is a crypto token backed by USD, held in a bank by the Tether company. Each Tether is r‚Ä¶ https://t.co/BiXiLehtet"
935550418368700416,2017-11-28 16:46:16,@Cryptophile410 @shmitcoins @AdamSinger @Chris_Herd ...and that's why ZCash and Monero came about. #decentralization
935531969563254785,2017-11-28 15:32:57,"@chuckwilliams37 ""All value is belief"".... not true.  The value of my car is the ability to move quickly across dis‚Ä¶ https://t.co/ScpPb9y6ah"
935531783575175168,2017-11-28 15:32:13,@Kizami_Z Ehhhh not really... it's fractured perhaps permanently into different communities now.
935531567883091968,2017-11-28 15:31:21,"@AdamSinger @Chris_Herd The short term price bubbles are full-on speculation, agreed.  But the long term increase i‚Ä¶ https://t.co/DTVKYD792u"
935524656886566912,2017-11-28 15:03:54,Why does Bitcoin keep growing?  Because it's time to separate money and state.
935523391930601472,2017-11-28 14:58:52,The current Bitcoin price bubble is only a surprise to those who are new to the industry. One does not create a wor‚Ä¶ https://t.co/TTKomXayFI
935306801389506560,2017-11-28 00:38:13,There is no currency more virtual than the US Dollar.
935306527488880640,2017-11-28 00:37:07,"New York Times: As Bitcoin Scrapes $10,000, an Investment Boom Like No Other https://t.co/fzEJgNzoI4 #finance"
935169838212886528,2017-11-27 15:33:58,"If you have a lot of crypto, and also significant debt, strongly consider selling some crypto at these all-time hig‚Ä¶ https://t.co/uyi8Ggc1rV"
935167881893072897,2017-11-27 15:26:12,@ecoinomia Because there are so few
935167755388628992,2017-11-27 15:25:42,"@Quiet_Kitchener Shhhhhh, I can already hear calls for the Safety and Protection for Extraterrestrial Troops and Miners Act"
935164419000107014,2017-11-27 15:12:26,@delevrything The Federal Government is not unregulated
935164175927664643,2017-11-27 15:11:28,@georgemcdonaugh Yep true! Okay there's at least one...
935162249982939137,2017-11-27 15:03:49,"Prediction: the biggest finance company in 10 years will be a tech company, not a bank. #bitcoin"
935161365689401344,2017-11-27 15:00:18,Here's a depressing challenge: try to name an unregulated industry.
934927708303245312,2017-11-26 23:31:50,@elonmusk Elon I was really hoping you weren‚Äôt a statist :( Let markets be.
934613815802478592,2017-11-26 02:44:32,"CNBC: Bitcoin users went on a Thanksgiving buying spree, and sent the cryptocurrency to a new record high https://t.co/ziCAMp63qm #finance"
934612348119035905,2017-11-26 02:38:42,RT @bespokeinvest: The number of users on Coinbase now exceeds the number of brokerage accounts at Charles Schwab. $SCHW https://t.co/EWNrP‚Ä¶
933490959844646912,2017-11-23 00:22:42,The witchhunt regarding Bitfinex and Tether seems to be based on little more than unjustified superstition. Would l‚Ä¶ https://t.co/44bvhldPh1
933174665148751877,2017-11-22 03:25:52,‚ÄúThe Challenges of Bitcoin Transaction Fee Estimation‚Äù by @lopp https://t.co/WfIyoYsG4o
933174107738324994,2017-11-22 03:23:39,Step 1: Join government &amp; create legal barriers to innovation. Step 2: Leave government &amp; get hired by those who ne‚Ä¶ https://t.co/FHceXNR1B7
933128978021228545,2017-11-22 00:24:19,JPMorgan reportedly getting into bitcoin futures trading even though Dimon believes it is a fraud https://t.co/3Aa5RQhzyW
932765814444269568,2017-11-21 00:21:14,@ElevenGrover Nope we don't. Why?
931611370037977088,2017-11-17 19:53:53,RT @ShapeShift_io: üÜï¬† Ripio ($RCN) is now on ShapeShift! - https://t.co/lj1wOpXGSf
931545534451539968,2017-11-17 15:32:17,@MatiasTrader @CryptoClub_ve I'm confused now...  is there a problem or not? https://t.co/asWsbUnufD
931542504234561537,2017-11-17 15:20:14,"@MatiasTrader Yeah, doesn't look good :(  I hear you."
931534998854701056,2017-11-17 14:50:25,"Interesting when BTC, BCH, ETH, and LTC are all rallying together. https://t.co/X4HCHctfC0 #bitcoin #litecoin #bitcoincash #ethereum"
931534725474164736,2017-11-17 14:49:20,@Leandro55089065 @SatoshiLite @jfnewbery I have nothing to do with Bitcoin Cash
930791293902397440,2017-11-15 13:35:12,Square Cash is letting some users buy and sell Bitcoin https://t.co/avZB9ABblZ via @techcrunch
930236595470458883,2017-11-14 00:51:01,CME CEO: Bitcoin Futures Could Begin Trading As Soon As December https://t.co/ovK9WM6of7 via @CoinDesk
929779762435727360,2017-11-12 18:35:44,@SWCampbell30 @indaHash @ShapeShift_io @ethereumproject @VitalikButerin @FBICyberSafety Please PM me
929475397770649601,2017-11-11 22:26:18,RT @ShapeShift_io: Scheduled maintenance will occur on ShapeShift at 5:30 EST. We expect this to be less than an hour. Thank you for your p‚Ä¶
929022213470093315,2017-11-10 16:25:30,@SatoshiLite @brian_armstrong @OneMorePeter @spair @wences ShapeShift implemented SegWit over a month ago and we en‚Ä¶ https://t.co/Q9XpoUTQoJ
929021687957405696,2017-11-10 16:23:25,@ProfFaustus Yeah that didn't go according to plan :(   I still prefer Bitcoin but fully support the alternative an‚Ä¶ https://t.co/gQeEnEPEV1
928646295249502208,2017-11-09 15:31:44,"For the avoidance of doubt, Core won this battle. Congrats to them. I'm glad SegWit activated at least, and I will‚Ä¶ https://t.co/b53HjLBzyl"
928643240546336768,2017-11-09 15:19:36,"@bradmillscan Really? That's how you read that?  It was intended as ""NYA finally got SegWit activated and all you c‚Ä¶ https://t.co/p050XlZv3D"
928640791748079617,2017-11-09 15:09:52,@Ce_ne @eric_lombrozo ShapeShift added SegWit over a month ago https://t.co/gru7xRebb4
928639515501117440,2017-11-09 15:04:48,"@eric_lombrozo I guess my idea of ""freedom from corrupt banks"" didn't include transaction fees that forced 99% of t‚Ä¶ https://t.co/aDJpZ5EfCx"
928470570663997440,2017-11-09 03:53:28,@eric_lombrozo Enjoy SegWit
928316364585963520,2017-11-08 17:40:43,Confirming the SegWit2x announcement.   https://t.co/8gSZyrYlOo
928312306567540736,2017-11-08 17:24:35,"RT @CharlieShrem: BREAKING: ""SegWit2X Suspending plans for the upcoming 2MB upgrade."" #Bitcoin
https://t.co/9eWcFOBm2A"
928117859632398336,2017-11-08 04:31:55,‚Äú5 Arguments Against a Freeze Fork (and one silver lining)‚Äù by @seven7hwave https://t.co/rJRxvMxlNV #ethereum
928115593747644417,2017-11-08 04:22:55,"@kylemarcon @jfnewbery @hrdng Thanks bro, I'll copy/paste that to the next customer who's asking why he paid more f‚Ä¶ https://t.co/oxEmShw6NO"
928114354410549248,2017-11-08 04:18:00,My father wrote a great little article on currencies and exchange rates... https://t.co/AlGcLYXptT #bitcoin #USD #EUR #inflation
928024084411224064,2017-11-07 22:19:18,"RT @CMEGroup: #Bitcoin futures contract specifications are now available. Learn about tick size, block thresholds and more. https://t.co/qi‚Ä¶"
926988468353486848,2017-11-05 01:44:08,@cyounessi1 @avsa And that degree of centralization and veto power bothers you not at all?
926987973366833152,2017-11-05 01:42:10,"@bitcointazz Yeah, Bitcoin works great for $7300 transactions. Just not for, you know, peer to peer electronic cash."
926907096695758848,2017-11-04 20:20:47,"Finally watched Life on Bitcoin, &amp; reminded of the pioneering spirit and importance of this project https://t.co/vV3mnJpTl4 @lifeonbitcoin"
926836326321786880,2017-11-04 15:39:34,"@rcastlespmg @iamjosephyoung @lopp No, we are looking at different datasets. I am looking at entire network, they a‚Ä¶ https://t.co/ZcYwlDNXuU"
926833104932737025,2017-11-04 15:26:46,@AnselLindner @MatiasTrader @Kizami_Z @alansilbert @nitroXplicit If it fails? Yes absolutely. I'm not trying to be‚Ä¶ https://t.co/dsPyrSNHKX
926832506371850240,2017-11-04 15:24:23,"@rcastlespmg I'm comparing what is actually in use on the Bitcoin network today, not some future ideal that doesn't currently exist."
926832067509231616,2017-11-04 15:22:39,@rcastlespmg The fees have been rising faster. Indeed they approach infinity as txs per second breech the tx limit.
926831780631416832,2017-11-04 15:21:30,@jratcliff @morcosa @MatiasTrader @alansilbert @nitroXplicit You mean an 85% miner supported upgrade to larger bloc‚Ä¶ https://t.co/NaRirchLd3
926831698557489153,2017-11-04 15:21:11,@MatiasTrader @Kizami_Z @alansilbert @nitroXplicit I'm not interested in a new coin. If the upgrade fails to achiev‚Ä¶ https://t.co/vhjubLtjKB
926830898921668609,2017-11-04 15:18:00,"@nitroXplicit @MatiasTrader @morcosa @alansilbert In reality it's 1.4x - 2x, and it while that's great it doesn't r‚Ä¶ https://t.co/fyihGEolKP"
926830708324225024,2017-11-04 15:17:15,@btcmantis @zachherbert @MatiasTrader @alansilbert @nitroXplicit I have told people to implement SegWit. I've advoc‚Ä¶ https://t.co/IEM7gojZwg
926830030784737280,2017-11-04 15:14:33,"@MatiasTrader @coinsalacarte @alansilbert @nitroXplicit Please define ""consensus""."
926829755478917120,2017-11-04 15:13:28,@MatiasTrader @morcosa @alansilbert @nitroXplicit Core's unwillingness to plan/organize a block increase is not als‚Ä¶ https://t.co/7GOZjTlwP3
926828994456154113,2017-11-04 15:10:26,@MatiasTrader @Kizami_Z @alansilbert @nitroXplicit The reason forks are happening is because so many users oppose t‚Ä¶ https://t.co/kynY5rcEvC
926827397156163585,2017-11-04 15:04:05,@MatiasTrader @morcosa @alansilbert @nitroXplicit Hmmm maybe you don't understand how Bitcoin works. I don't contro‚Ä¶ https://t.co/M5FUtZUyYQ
926826825829027840,2017-11-04 15:01:49,@zachherbert @MatiasTrader @alansilbert @nitroXplicit It doesn't solve it in the long term. It alleviates it in the‚Ä¶ https://t.co/qovH4g5Y7j
926826403957391362,2017-11-04 15:00:08,@Kizami_Z @alansilbert @MatiasTrader @nitroXplicit I think SegWit and a 2mb base block buys 1-2 years of scale while layer 2 is deployed.
926825882362175488,2017-11-04 14:58:04,@morcosa @MatiasTrader @alansilbert @nitroXplicit It depends on the specific situation. I'll support anything that‚Ä¶ https://t.co/Q64iVpzvbo
926820964481896449,2017-11-04 14:38:32,@MatiasTrader @alansilbert @nitroXplicit Which poll are you citing? That's what I keep asking and you aren't providing a link.
926820789281632256,2017-11-04 14:37:50,@Cameron @MatiasTrader @alansilbert @nitroXplicit No we aren't. Advocacy of a path forward =/= a claim of universal‚Ä¶ https://t.co/GbeLmLjhv9
926820407646097409,2017-11-04 14:36:19,@MatiasTrader @alansilbert @nitroXplicit You'll pay $10 fee to send $15 transaction?
926820122307715078,2017-11-04 14:35:11,@_GIBUS_ @btcmantis Little reminder: the actual people who use Bitcoin consider it against alternatives in the real world.
926819229889806337,2017-11-04 14:31:38,"@MatiasTrader @alansilbert @nitroXplicit It's obviously contentious, I didn't disagree with that. I asked if you ha‚Ä¶ https://t.co/hnKCnUShtJ"
926819002948624384,2017-11-04 14:30:44,"@nvk @jgarzik I wasn't talking about ""my txn."" I looked at a block and did the difficult calculation of dollars spe‚Ä¶ https://t.co/iR2vSqfsPX"
926818439229927424,2017-11-04 14:28:30,@CryptoCalories @MatiasTrader @rjenkins_atl I didn't claim that. I don't know what the silent majority wants.
926817127591374852,2017-11-04 14:23:17,@MatiasTrader @alansilbert @nitroXplicit I've never claimed to represent the entire community. Please don't misstat‚Ä¶ https://t.co/BdGjzOxmFl
926816543362637826,2017-11-04 14:20:58,@nitroXplicit @MatiasTrader @alansilbert @SamouraiWallet An Android app with 10k users =/= multiplatform enterprise service with 10m users.
926816109700964353,2017-11-04 14:19:14,"@knowbitcoin @MatiasTrader @rjenkins_atl Tons of people are pouring into crypto, and many of them are moving along‚Ä¶ https://t.co/ft9osySmF2"
926815807962734592,2017-11-04 14:18:02,"@alansilbert @MatiasTrader @nitroXplicit Have you run a large software development company? If not, perhaps don't j‚Ä¶ https://t.co/yxRLLsGiHH"
926815570619645952,2017-11-04 14:17:06,@MatiasTrader @nitroXplicit @alansilbert It takes time to safely upgrade production infrastructure with millions of users.
926814654311030784,2017-11-04 14:13:27,@AaronIngalls @CryptoUntether @AnselLindner @MrHodl I couldn't agree more.
926814389318987776,2017-11-04 14:12:24,"@Cameron @MatiasTrader @rjenkins_atl It's not a bigger dick contest, but a better utility contest, &amp; Bitcoin is goi‚Ä¶ https://t.co/6t45RHeI63"
926813859909812224,2017-11-04 14:10:18,"@MatiasTrader @nitroXplicit @alansilbert CoinBase, Blockchain, and BitPay have millions of customers and wouldn't j‚Ä¶ https://t.co/PxSzf0splk"
926809592201224192,2017-11-04 13:53:20,@KryptykHex Personal anecdote &lt; network aggregate data.
926809162926845955,2017-11-04 13:51:38,@nvk @jgarzik I mentioned average tx fees across the real network today. Not a counterfactual future in which every‚Ä¶ https://t.co/4k1RpY2VwY
926807654046896129,2017-11-04 13:45:38,@nvk @jgarzik We're one of the biggest senders and receivers of SegWit transactions.
926806943108235266,2017-11-04 13:42:49,"@austin_storms Go look at the blockchain. I clicked this one https://t.co/OO6MbjQktv ‚Ä¶ 2.67 BTC in fees ($18,957) f‚Ä¶ https://t.co/mJRDkZu8BS"
926806035183964161,2017-11-04 13:39:12,@MatiasTrader @rjenkins_atl The market will show Bitcoin if people don't take the exponentially increasing cost of‚Ä¶ https://t.co/wrr4EgFFPa
926805744556503040,2017-11-04 13:38:03,@BTCSnacky @MrHodl @CryptoUntether It is online because 95% of miners started signaling for it following the NYA/Se‚Ä¶ https://t.co/l311qujvyO
926805252124286978,2017-11-04 13:36:05,"@gremako Go look at the blockchain. I clicked this one https://t.co/OO6MbjQktv ‚Ä¶ 2.67 BTC in fees ($18,957) for 188‚Ä¶ https://t.co/qbxrE916Vy"
926805122780250112,2017-11-04 13:35:35,"@LunaGoons I'm looking at the blockchain. I clicked this one https://t.co/OO6MbjQktv ‚Ä¶ 2.67 BTC in fees ($18,957) f‚Ä¶ https://t.co/Xyu68XTmeV"
926804648907890689,2017-11-04 13:33:42,@MrHodl @CryptoUntether Clearly... they were unable to even get SegWit activated. Thankfully others took action to make it happen.
926804219239178240,2017-11-04 13:31:59,"@MatiasTrader @rjenkins_atl So no citation then, got it."
926804092944490497,2017-11-04 13:31:29,"@cadillackiller I guess if you're comfortable with other cryptos taking increasing portions of Bitcoin's mkt share, then it's not an issue."
926803869874524165,2017-11-04 13:30:36,"@gremako I'm using averages across thousands of transactions, and you are refuting with a personal anecdote?"
926803625954885632,2017-11-04 13:29:38,@Rococo44 @BTC4USD @yougiano More expensive than banks doesn't seem very reasonable to me. Maybe you have lower exp‚Ä¶ https://t.co/o9nilShQNA
926802241595490304,2017-11-04 13:24:08,@MatiasTrader @rjenkins_atl Still waiting for your citation of 80/85% of users opposed to SegWit2x
926801305938509827,2017-11-04 13:20:25,@MatiasTrader @rjenkins_atl Citation pls
926799963425665024,2017-11-04 13:15:05,"@MatiasTrader @rjenkins_atl Users are paying those fees. We have hundreds of thousands of users, losing $50k per da‚Ä¶ https://t.co/RvAJmVrgG3"
926798213524348928,2017-11-04 13:08:07,"I wrote this back in Feb when avg fees were ""only"" $0.83. https://t.co/BQynfsB5rG"
926797510776991744,2017-11-04 13:05:20,"@shivamchawla243 Fees rise exponentially, not linearly, with transaction qty."
926797037240164352,2017-11-04 13:03:27,"@BTC4USD @yougiano $5 fees are Roger's fault now? Also, Roger was not a SegWit2x signer."
926796738446237697,2017-11-04 13:02:16,@codeCrypto https://t.co/5LTXekhrEC
926796640282845185,2017-11-04 13:01:52,"@Ha_Sch @BTC4USD @yougiano I am measuring USD cost per transaction sent on the network, and I linked to the blockch‚Ä¶ https://t.co/zmF0nxESLO"
926796101331513345,2017-11-04 12:59:44,"@Beautyon_ @brian_trollz No, not like Bitcoin. I thought we were talking about Multibit, but I guess snarkiness is‚Ä¶ https://t.co/c4BPaNzymd"
926795587986513920,2017-11-04 12:57:41,@rjenkins_atl My tweet didn't make any claims like that. I'm just stating facts.
926795356074995712,2017-11-04 12:56:46,"@BTC4USD @yougiano Go look at the blockchain. I clicked this one https://t.co/OO6MbjQktv 2.67 BTC in fees ($18,957)‚Ä¶ https://t.co/0kAS3LeT7v"
926794084798251009,2017-11-04 12:51:43,"@yougiano Do you know what ""average"" means?"
926793978845872129,2017-11-04 12:51:18,"@rjenkins_atl We send over 5,000 Bitcoin transactions every day, and we pay between $3-$15 per tx. Roughly $50,000‚Ä¶ https://t.co/clysk7OPUc"
926793270398558210,2017-11-04 12:48:29,@yougiano We added SegWit a month ago https://t.co/gru7xRebb4
926792773998538752,2017-11-04 12:46:30,"@shivamchawla243 I didn't make an analogy, I just stated facts."
926791347016646658,2017-11-04 12:40:50,The average Bitcoin transaction fee ($10.17) is now more than twice the cost of Bitcoin itself when I first learned of it ($5) in 2011 :(
926790633162907649,2017-11-04 12:38:00,"@Beautyon_ @brian_trollz Multibit was already dead with technical debt, and causing problems for users. It was time for it to be retired."
926789644447973378,2017-11-04 12:34:04,Real-time cryptocurrency market data: https://t.co/MucVmDhAn9  (check out iPhone and Android apps) #bitcoin #ethereum #litecoin #blockchain
926777954809425920,2017-11-04 11:47:37,"@brian_trollz We were one of the first large companies to actually implement SegWit, and are to date one of the big‚Ä¶ https://t.co/4AWdafiWTa"
926590555076796417,2017-11-03 23:22:58,RT @ShapeShift_io: Cryptocurrencies reach record $185 billion in market value after bitcoin surge https://t.co/4uJ70K3ybP
926570111502135297,2017-11-03 22:01:44,@Clermont1 @ShapeShift_io Sorry to hear that - was your order resolved?
925846735880179714,2017-11-01 22:07:17,ShapeShift boat party at #Devcon3  Cancun last night @ShapeShift_io #ethereum #devcon2017 https://t.co/AdrGeBiABs
925437905983688706,2017-10-31 19:02:45,CME Group Announces Launch of Bitcoin Futures - CME Group https://t.co/JB0AVFBmfE
925229360260550656,2017-10-31 05:14:04,Cancun for Devon 3 #Crypto #ethereum #blockchain https://t.co/WKockkAuDP
924652799274532864,2017-10-29 15:03:01,‚ÄúAirbitz is now Edge!‚Äù by @Airbitz https://t.co/JLrYcPx3K1 (includes native ShapeShift integration)
924459066994208768,2017-10-29 02:13:11,RT @libertarianism: Why are there so many opioid users in the US? https://t.co/hRhFFS7PIc
924358296890306560,2017-10-28 19:32:46,"RT @wikileaks: This is the moment Catalonia declared independence from Spain today. Parliamentary votes are being read out. Si = yes, No =‚Ä¶"
924357547972116481,2017-10-28 19:29:47,"RT @ShapeShift_io: What is Ethereum? Learn what it is and how to buy Ether on ShapeShift!
https://t.co/0xPh1hQ09c"
924357040968908800,2017-10-28 19:27:46,RT @CryptoWindow: UK Treasury: Digital Currencies Pose Low Terrorist Financing Risk https://t.co/6xkoaWCtUp https://t.co/caNAV22n0M
923797872520204288,2017-10-27 06:25:50,"RT @MarkYusko: Only gamble was whether #BItcoin would make if from $0 to $100, that was the real miracle. Going from $4,000 to $40,000 or $‚Ä¶"
923694180580311040,2017-10-26 23:33:48,‚ÄúFirstBlood eSports Gaming Platform Partners with Purse‚Äù by @abhilash710 https://t.co/E3zJZIfQkb
923610425731661824,2017-10-26 18:01:00,Why Bitcoin Matters More Than Blockchain via @forbes https://t.co/MSZ9LfUD55 #finance
923571956770684928,2017-10-26 15:28:08,"RT @RSKsmart: Secure, stable and efficient smart contracts coming to Bitcoin soon powered by RSK
Join the revolution! Be part of the #Inter‚Ä¶"
923324395082227712,2017-10-25 23:04:24,"RT @laurashin: OK, new, slightly different Q: which Bitcoin blockchain do WANT to become the main Bitcoin blockchain?"
923225714366672896,2017-10-25 16:32:17,@jlbtc Wow... nice way to take my statement completely out of context. Nowhere did I attack anonymity. Misrepresent‚Ä¶ https://t.co/g2pndi9DtR
923210448505225216,2017-10-25 15:31:38,"@BitConsultants @city19akro @CryptoClub_ve @Beautyon_ @Blockstream Please stop this lie that ""all engineers support‚Ä¶ https://t.co/0I8rlxAlyY"
923208729939517441,2017-10-25 15:24:48,"@city19akro @CryptoClub_ve @Beautyon_ @Blockstream Thank you, I appreciate the civility, and I understand the issue is highly contentious."
923207795704340480,2017-10-25 15:21:05,@CryptoClub_ve @Beautyon_ @city19akro @Blockstream @ShapeShift_io I hear you and respect your opinion. I have never‚Ä¶ https://t.co/87k1gsqkaE
923207543391797248,2017-10-25 15:20:05,"@RussellRukin @tournamentdan @coinbase They work for themselves. They are not our servants, and not our masters."
923207315796377600,2017-10-25 15:19:11,@StopAndDecrypt @city19akro @CryptoClub_ve @Beautyon_ @Blockstream I don't know what side the market is on. There a‚Ä¶ https://t.co/N8qa65TpRk
923206953936994311,2017-10-25 15:17:44,@CryptoClub_ve @Beautyon_ @city19akro @Blockstream 1) Im not a miner. 2) Single miners can't force anything. 3) maj‚Ä¶ https://t.co/SZIFEzkKcW
923206359444701184,2017-10-25 15:15:23,"@Beautyon_ @CryptoClub_ve @city19akro @Blockstream Private parties agreeing to work together on a position, and the‚Ä¶ https://t.co/lKJpr4HtaA"
923205760384770050,2017-10-25 15:13:00,@city19akro @CryptoClub_ve @Beautyon_ @Blockstream I probably wont be involved in further scaling discussions (whet‚Ä¶ https://t.co/CGBdCqM9um
923205408361029634,2017-10-25 15:11:36,@RussellRukin @tournamentdan Please run whatever node you wish. We agree the system must remain decentralized.
923205058304524289,2017-10-25 15:10:12,"@city19akro @CryptoClub_ve @Beautyon_ @Blockstream They dont dictate either as they ultimately follow price, meanin‚Ä¶ https://t.co/sgw7n2oTTw"
923204830830649344,2017-10-25 15:09:18,"@CryptoClub_ve @Beautyon_ @city19akro @Blockstream My position clearly doesn't represent you, as you disagree with‚Ä¶ https://t.co/stomChvXhN"
923204454152790021,2017-10-25 15:07:48,@Beautyon_ @CryptoClub_ve @city19akro @Blockstream Wow wtf kind of autocratic nonsense that is. Hopefully you will‚Ä¶ https://t.co/DNNrdWUqnQ
923204053642838016,2017-10-25 15:06:13,@city19akro @CryptoClub_ve @Beautyon_ @Blockstream That's a very propagandistic way of saying we created a SegWit +‚Ä¶ https://t.co/can3cagk2X
923203754429517824,2017-10-25 15:05:02,@CryptoClub_ve @Beautyon_ @city19akro @Blockstream Letting people decide is exactly what I'm doing. Why do you think otherwise?
923203387566342145,2017-10-25 15:03:34,@Beautyon_ @CryptoClub_ve @city19akro @Blockstream The fact remains: the attendees and signers of NYA are public. T‚Ä¶ https://t.co/rn2HYDA187
923201629452754944,2017-10-25 14:56:35,"@CryptoClub_ve @Beautyon_ @city19akro @Blockstream I don't think I can change BTC rules. But I can make proposals,‚Ä¶ https://t.co/EqyymtI6wS"
923201413290770433,2017-10-25 14:55:43,@CryptoClub_ve @Beautyon_ @city19akro @Blockstream Nothing wrong with anonymity at all. But staying anonymous and y‚Ä¶ https://t.co/rWSV8nPzPD
923199227215228929,2017-10-25 14:47:02,"@Ha_Sch @Beautyon_ @city19akro @Blockstream Let me google that for you. Here is the code and the relevant, narrow o‚Ä¶ https://t.co/EdnzPEgZ9t"
923198950017982464,2017-10-25 14:45:56,"@Bilthon So ""total lack of developer support"" was a exaggeration on your part, then. I suppose you are counting onl‚Ä¶ https://t.co/ZvoEVA5aEP"
923197151202521088,2017-10-25 14:38:47,@Bilthon There is not a single developer who supports it?
923196868959465472,2017-10-25 14:37:40,@Beautyon_ @city19akro @Blockstream It's always great when anonymous twitter accounts criticize people for secrecy.‚Ä¶ https://t.co/y5nZNFRxVG
923194967803047941,2017-10-25 14:30:07,"@Bilthon They can't dictate anything. They can propose things to the market, like anyone else. You just don't like their proposal."
923194450079182848,2017-10-25 14:28:03,"@city19akro @Beautyon_ @Blockstream Anti OSS?  btc1 is open source, and will only be adopted if it earns favor in t‚Ä¶ https://t.co/U3fHeQF0yq"
923193980975767552,2017-10-25 14:26:11,@CryptoClub_ve @Beautyon_ I know... read my first tweet.
923193835794006016,2017-10-25 14:25:37,"@anthonyyaco @Beautyon_ I know Blockstream doesn't define Bitcoin, look at my original tweet."
923193565882257408,2017-10-25 14:24:32,"@Bilthon DCG has done more to fund Bitcoin startups than anyone on Earth, and they have been for years while most o‚Ä¶ https://t.co/aT517c59h4"
923190998704025601,2017-10-25 14:14:20,"@Beautyon_ Blockstream has never met in secret? Hmmm, I don't remember an invite to their board meetings. I must've‚Ä¶ https://t.co/SuvlnGGk2Z"
923189133375307783,2017-10-25 14:06:56,"@punkrrrock @JHICFO Anyone who ragequits and leaves the project when they don't get their way, perhaps shouldn't be‚Ä¶ https://t.co/KwSw6iKPml"
923188502304608257,2017-10-25 14:04:25,"The conspiracy theories from r/btc about Blockstream, and from r/bitcoin about DCG, are equally absurd mirrors of one another. #bitcoin"
923003273304424450,2017-10-25 01:48:23,CoinBase: ‚ÄúClarification on the upcoming Segwit2x Fork‚Äù by David Farmer https://t.co/M994YgXxex
922942265693159424,2017-10-24 21:45:58,HELL YES! Overstock's T√ò is Launching an Initial Coin Offering Next Month https://t.co/BRVkQbYchd  #ByrnesRevenge  #blockchain @OverstockCEO
922929671242637312,2017-10-24 20:55:55,@Beautyon_ You don't wear socks? Maybe on a subconscious level that's where our disagreements stem from?
922850733422022657,2017-10-24 15:42:15,Thanks for the shout out... but socks and flip flops? https://t.co/5Iitjism6y
922665366400073728,2017-10-24 03:25:40,@Solioism @MathewOKeefe No I wouldn't. I'll move forward with whatever the market prefers.
922664883656671232,2017-10-24 03:23:45,"@REAL_MR_R0B0T You don't have to be highly technical to know that's a false dichotomy, and a slogan more befitting‚Ä¶ https://t.co/G0PDCnafLA"
922612726127456256,2017-10-23 23:56:29,@eric_lombrozo @MathewOKeefe I think you're confusing me with someone who dislikes Core. And of course Core has hel‚Ä¶ https://t.co/Kbqi1fF32r
922582696836001792,2017-10-23 21:57:10,"@eric_lombrozo @MathewOKeefe @ShapeShift_io Thanks Eric, I like you too. There are many who are upset, and many who‚Ä¶ https://t.co/4GM0hgKj1s"
922581750865215488,2017-10-23 21:53:24,"@eric_lombrozo @MathewOKeefe Yep that's what were doing. The proposal is SegWit2x, which is half complete. The comm‚Ä¶ https://t.co/ALxSV2uTQr"
922580957177167872,2017-10-23 21:50:15,@eric_lombrozo @MathewOKeefe Please stop with the political rhetoric. We're trying to activate SegWit (done) and a‚Ä¶ https://t.co/6Yqe1jADag
922577264482557952,2017-10-23 21:35:35,@MathewOKeefe Would need to discuss that in more than 140 chars.  SegWit2x is a proposal to activate SegWit (accomplished) and a 2MB block.
922575083326943233,2017-10-23 21:26:55,"@MathewOKeefe Because Bitcoin should be decentralized. No person or group should be indispensable. That said, I don‚Ä¶ https://t.co/bAwa060bIA"
922556092789469185,2017-10-23 20:11:27,"@WilliamJLuther @tokenixer That's why human flight never happened, that first airplane just crashed. Good thing it‚Ä¶ https://t.co/n1UBl9p3Vs"
922542826923098112,2017-10-23 19:18:44,"Very good Forbes piece on the coming fork, and how we got here: Will This Battle For The Soul Of Bitcoin Destroy It? https://t.co/IfLfnpMF4X"
922292124162310145,2017-10-23 02:42:32,RT @BrianRoemmele: ‚ÄúBitcoin is mathematical. I am a mathematician. There are only 21 million. It is more legitimate than other systems‚Äù‚Äî@st‚Ä¶
921987779583545344,2017-10-22 06:33:11,RT @exodus_io: Exchange blockchain assets directly inside Exodus wallet with built-in @ShapeShift_io https://t.co/vrN93hp1IL https://t.co/0‚Ä¶
921985938405781504,2017-10-22 06:25:52,"RT @BitfuryGeorge: Governments will roll out crypto-currencies, but they will, undoubtedly, continue inflating them just like fiat. So what‚Ä¶"
921197997353865216,2017-10-20 02:14:52,RT @ShapeShift_io: üÜï¬† District0x is now on ShapeShift! - https://t.co/0hORuLu70L
921095388018429953,2017-10-19 19:27:08,‚ÄúA Letter to Jamie Dimon‚Äù by Chain https://t.co/GKffU3uXZ9 #bitcoin
921065296189726720,2017-10-19 17:27:33,"RT @Dr10tv: $SALT for Beginners 

Please Like &amp; RT if you liked this video ‚úåÔ∏è

$crypto @SaltLending @ErikVoorhees

https://t.co/XWpefyHnrR"
920767004688097280,2017-10-18 21:42:15,‚ÄúKeeping the Community Together‚Äù by @mikebelshe https://t.co/zs4H08Yg7X #bitcoin
920340084171218945,2017-10-17 17:25:49,RT @SaltLending: #SALTLending is excited to announce our partnership with the State Bank of #Mauritius. @Cointelegraph https://t.co/pyf1neO‚Ä¶
920135845801103360,2017-10-17 03:54:15,"WikiLeaks made a 50,000% return on bitcoin thanks to the US government, Julian Assange claims https://t.co/iNYSsIWbWf"
920094359801929728,2017-10-17 01:09:24,‚ÄúFirstBlood eSports Gaming Platform Partners with Purse‚Äù by @abhilash710 https://t.co/E3zJZIfQkb
919963340394213376,2017-10-16 16:28:47,"RT @AmityShlaes: Bitcoin is a measure of the failure of all our other currencies, and the govts behind them."
919361293055811584,2017-10-15 00:36:27,"RT @JulianAssange: My deepest thanks to the US government, Senator McCain and Senator Lieberman for pushing Visa, MasterCard, Payal, AmEx,‚Ä¶"
919026182531588096,2017-10-14 02:24:51,RT @ReformedBroker: ‚ÄúWe don‚Äôt like Bitcoin we love blockchain‚Äù is the new ‚ÄúI read Playboy for the articles.‚Äù
918986016085520386,2017-10-13 23:45:14,Another day at ShapeShift...  https://t.co/ufwt642o5H #bitcoin  @ShapeShift_io
918920864426369024,2017-10-13 19:26:21,Chart of the Day: Jamie Dimon vs Bitcoin https://t.co/XAlLhMzC6D via @qz #finance #scoreboard @zerohedge
918907423196291073,2017-10-13 18:32:56,Bitcoin's market value is now larger than Goldman Sachs and Morgan Stanley https://t.co/vyCNCyyZrl #finance
918851050852904960,2017-10-13 14:48:56,"I think this Bitcoin price rise is Jamie Dimon trying to buy coins while his daughter keeps moving her asks up. Just cross the spread, Jamie"
918849072173170688,2017-10-13 14:41:04,RT @NeerajKA: millennial investors https://t.co/0SQhNTPFZL
918538240688193536,2017-10-12 18:05:56,"Bloomberg: Bitcoin surges to another new record, passes $5,000 https://t.co/0EZVRjm5UV via @technology #finance #forex #blockchain"
918534465437044737,2017-10-12 17:50:56,The SBM Group and SALT Technology Enter Exploratory Partnership to Collateralize Blockchain Assets https://t.co/QrKktClcFv @SaltLending
918459382873997312,2017-10-12 12:52:35,"Bitcoin smashes above $5,200 to hit a new record  https://t.co/ANXFQMQtar"
918296172481077248,2017-10-12 02:04:03,RT @SimonDixonTwitt: Love the new feature allowing me to exchange $BCH on my @blockchain wallet at time of the fork to $BTC via @ShapeShift‚Ä¶
918223812667121664,2017-10-11 21:16:31,RT @ShapeShift_io: üÜï¬† Salt (SALT) now on ShapeShift - https://t.co/Wp6DiTtobV
918143327303712768,2017-10-11 15:56:42,"@marceljamin Um, are you serious? It has some facts, for sure, combined w/ lots of opinions and propaganda. It's partisan and political."
918126175758598146,2017-10-11 14:48:32,Glad to see many of the rational comments on https://t.co/UpcexxSduL regarding https://t.co/cnz9alLvgV's highly political message today.
917939538462248962,2017-10-11 02:26:55,@A_Hannan_Ismail I think you have it backwards. Markets tend toward elite capture to the extent people try to regul‚Ä¶ https://t.co/m2FNNfyTXl
917939218013233152,2017-10-11 02:25:38,You can now buy full citizenship of the Pacific nation of Vanuatu for less than 44 bitcoin https://t.co/LWGJX5Ngyj via @clusterstock
917836127934881792,2017-10-10 19:36:00,"Xapo's very reasonable ""We'll let market decide"" blog post was met w/ vitriol and hatred by the r/bitcoin community. Witch hunt intensifying"
917754764066152448,2017-10-10 14:12:41,Great crypto ad in the WSJ!¬† https://t.co/oNPZXX7Ei6 #bitcoin
917596330461077504,2017-10-10 03:43:07,Xapo: About the Bitcoin SegWit2x update https://t.co/qHEXCLLhTo
917578501045207041,2017-10-10 02:32:17,"@bitcoincoreorg Please check, we'd like to be on the SegWit list https://t.co/ql8O3LhLvt"
917513668518076416,2017-10-09 22:14:39,RT @ShapeShift_io: üÜï¬† NEM (XEM) is now on ShapeShift! - https://t.co/bNcHghBum4
917455882174078976,2017-10-09 18:25:02,Will Bitcoin Remain Anti-Fragile? ‚Äì Erik Voorhees Interview on Crush the Street https://t.co/NtYkThYi0g
917129040657391616,2017-10-08 20:46:17,"@brian_trollz 1) I don't live on twitter, so don't get butthurt if I don't see some of your tweets. 2) Who are you and what is your podcast?"
916678788322226177,2017-10-07 14:57:08,RT @ShapeShift_io: Interested in becoming a ShapeShift affiliate? Connect with us!  https://t.co/3siC5j34hm
916678050372239360,2017-10-07 14:54:12,RT @BobMurphyEcon: One of the reasons I became an economist. https://t.co/xyJHABjUgS
916676566549020672,2017-10-07 14:48:19,RT @RodriguezDaGod: Dear God. It ACTUALLY fucking happened https://t.co/h5J6ibytAU
916497356702441473,2017-10-07 02:56:12,Oldie but goodie... Ultimate Bitcoin Showdown: Peter Schiff vs. Erik Voorhees 2013 https://t.co/NkAmMmsWpC
916438921659088896,2017-10-06 23:04:00,RT @alansilbert: #SegWit txs hit 8%. Thx @ShapeShift_io  https://t.co/yvyE7Fh7Ey
916419353821700096,2017-10-06 21:46:14,@Frazem11 @Excellion Maybe you missed this which I wrote back in April.  https://t.co/mOYEHAYTIY  Why SegWit2x? Bec‚Ä¶ https://t.co/WtTbH5r78m
916405529534111744,2017-10-06 20:51:18,Always easier to dismiss &amp; slander an opponent with lies than to debate the arguments themselves. Me being pro-gov‚Ä¶ https://t.co/LvJ6r5HiAh
916388455017463808,2017-10-06 19:43:28,@MatiasTrader Happy to be associated with those fine gentlemen any day of the week.
916326731056742401,2017-10-06 15:38:11,"@Beautyon_ @koinster Except nothing about it was secret. Announced well ahead of time, purpose explicit and public,‚Ä¶ https://t.co/Su1z8cRwdi"
916323827662991360,2017-10-06 15:26:39,"@koinster Many Core devs were invited repeatedly by Barry. They ignored/refused to participate, which is their righ‚Ä¶ https://t.co/m2YJmy5aEz"
916323586230513664,2017-10-06 15:25:42,"@ndrchvzz @BTCSnacky @DanDarkPill ShapeShift will list both assets, it's role is to help markets move efficiently.‚Ä¶ https://t.co/LgHca7skM8"
916083118108401664,2017-10-05 23:30:10,(awesome) @bitfinex just opened market for SegWit2x (bt2) vs Legacy Bitcoin (bt1) trading.   https://t.co/HqxxLFLi9s
916058522009223168,2017-10-05 21:52:25,"@rizoryan You realize ""most bitcoin users"" are using coinbase or https://t.co/ZA5vkCMbAU and don't even know about‚Ä¶ https://t.co/oNSRFevVHG"
916057955769868289,2017-10-05 21:50:10,@BitConsultants @morcosa @DanDarkPill UASF was going to cause a chainsplit... it had less than 15% hashpower suppor‚Ä¶ https://t.co/03DrQHu9zC
916057642430193664,2017-10-05 21:48:56,"@coinjunky @morcosa @DanDarkPill That's an interesting theory, considering SegWit support languished at 30-40%. The‚Ä¶ https://t.co/cozKTurP5m"
916057336392802304,2017-10-05 21:47:43,"@billy_bitcoin @morcosa @DanDarkPill This may surprise you, but I don't read every post and comment on reddit. I have to work."
916043991572815872,2017-10-05 20:54:41,"@billy_bitcoin @morcosa @DanDarkPill I was incorrect, hadn't been 2+ years."
916042791502802945,2017-10-05 20:49:55,"@morcosa @DanDarkPill Well speaking of forward progress, ShapeShift now running SegWit txs https://t.co/gru7xRebb4"
916042417354137600,2017-10-05 20:48:26,ShapeShift Now One of the Leading SegWit Adopters https://t.co/nIeq1XuFRZ  #SegWit #Bitcoin #Blockchain
916041589587247104,2017-10-05 20:45:08,@BTCSnacky @DanDarkPill Because I don't renege on agreements.
916041462004903936,2017-10-05 20:44:38,"@morcosa @DanDarkPill True, 2 years is wrong. It was announced in Dec '15, so it took about 1.5 years to finally ac‚Ä¶ https://t.co/DD3EE6fjlc"
916037943159963653,2017-10-05 20:30:39,"US Gov, with $3 trillion of stolen tax dollars per yr, cant even keep data safe. WSJ: Russian hackers stole NSA data https://t.co/736X5V7Or4"
916034382271365120,2017-10-05 20:16:30,@DanDarkPill Actually it was an attempt to get SegWit activated after 2+ years of nothing happening. Still open sou‚Ä¶ https://t.co/Wcxmn0qF0a
916018932078620672,2017-10-05 19:15:06,@cryptotraveler @Beautyon_ Pls define consensus.
916016487000768512,2017-10-05 19:05:23,@cryptotraveler @Beautyon_ TIL promoting open source software constitutes force.  #TheMoreYouKnow
916009943546847232,2017-10-05 18:39:23,Forbes profiles thoughts from several crypto industry leaders on the future and purpose of the blockchain phenomenon https://t.co/wH7I7qkKj8
915973103376666624,2017-10-05 16:13:00,‚ÄúHow Segwit2x Replay Protection Works‚Äù by @jimmysong https://t.co/5mp00xQgw8 #bitcoin
915970701529464837,2017-10-05 16:03:27,@quikflip757 @ShapeShift_io Ummm yeah I just posted that SALT was available directly on @ShapeShift_io :)
915962100027133954,2017-10-05 15:29:17,SALT now available on @ShapeShift_io and Exodus https://t.co/VEgGETbSRo
915786464713220096,2017-10-05 03:51:22,"Equifax is Getting Access to Your Data Again, Thanks to the IRS  https://t.co/elWILkitmS via @inversedotcom  #NotWorthyOfLordship"
915784908710215681,2017-10-05 03:45:11,"@AndyPickeringNZ @TuurDemeester Tuur is a good guy, but this discussion is toxic. I'm not going to call people enem‚Ä¶ https://t.co/ptl9aZEIjS"
915783248294359040,2017-10-05 03:38:35,"@alexpimania Just a snarky joke. Peter and I, and others, have been labeled enemies of Bitcoin. I'm hoping we'll at least get tshirts."
915751471165173765,2017-10-05 01:32:19,@WhalePanda @OneMorePeter Kinda like Core's scaling roadmap? Or that roadmap is okay because Core?
915751151525597184,2017-10-05 01:31:03,"You've diverged from the doctrine of the High Council, Peter! https://t.co/35IMizeP31"
915632034739052555,2017-10-04 17:37:43,Large Japanese Energy Supplier Adds Bitcoin Payments With a Discount https://t.co/FD0oITEwn2 via @BTCTN
915631161623408640,2017-10-04 17:34:15,Lucerne University of Applied Sciences and Arts accepts payments in bitcoin https://t.co/ADk0hNmtTZ
915599934539419648,2017-10-04 15:30:10,"Contrast this with the US Dollar, which has its hyperinflationary days still to come... https://t.co/d9tyRZXEeC"
915422756304445440,2017-10-04 03:46:07,@CryptoOnramp There were two or three corrupt officers involved... and that's just the ones who got caught.
915422605129084928,2017-10-04 03:45:31,"@cryptomaze If they ""came down too hard"" then justice was not ""properly served."""
915386515085127680,2017-10-04 01:22:06,@cryptomaze Double life + 40 years for running a website that allowed consenting adults to buy drugs?
915385748567638017,2017-10-04 01:19:04,RT @ShapeShift_io: Op Ed: How Blockchain Technology Could Save Struggling Artists Around the World https://t.co/LpQLClBScT
915384847832457216,2017-10-04 01:15:29,"Never thought I'd see the day... Just kidding, this was inevitable, but holy shit! https://t.co/JvC9yJJvXV"
915360525608873984,2017-10-03 23:38:50,RT @KeiserReport: Stacy takes control of the second half! She interviews @ErikVoorhees. Check it out: https://t.co/Ez3fG93HQA
915360215230332928,2017-10-03 23:37:36,@9ofCups_ We'll see about that.
915359198531117056,2017-10-03 23:33:34,"Everyone in Bitcoin should be aware of this tragic story. Please read, donate, and spread the word to keep this sto‚Ä¶ https://t.co/rZ8yEnCIfU"
915287525517754368,2017-10-03 18:48:45,"BitPay‚Äôs Bitcoin Payments Volume Grows by 328%, On Pace for $1 Billion Yearly https://t.co/lTt31SX5b3 via @bitpay #finance #fintech"
915216076203376642,2017-10-03 14:04:51,Goldman Sachs considers becoming first Wall Street firm to trade bitcoin https://t.co/OL7KFf020F via @NYBizJournal #finance
914915960988897280,2017-10-02 18:12:18,"RT @paulvigna: Exclusive: Goldman Sachs weighing a new trading operation dedicated to #bitcoin, other digital currencies https://t.co/j68lZ‚Ä¶"
914856237363351552,2017-10-02 14:14:58,Japan's FSA gives official endorsement to 11 cryptocurrency exchanges https://t.co/AEN5h5M417 #bitcoin #ethereum
914546572314083328,2017-10-01 17:44:28,"RT @SaltLending: Addressing #blockchain #volatility is part of our core. Make the most of your #crypto #assets.

Learn more: https://t.co/p‚Ä¶"
914534249306382336,2017-10-01 16:55:30,Bitcoin victory in New Hampshire. Fun fact... Mr. Ammon was the person from whom I first learned of Bitcoin back in‚Ä¶ https://t.co/leZjmUKZi8
914307194010583040,2017-10-01 01:53:16,How Japan is fast becoming the powerhouse of the bitcoin market https://t.co/oqH6jCl5xR
913915942270152704,2017-09-29 23:58:35,Heheheheh  https://t.co/VwC9Ed3nv9 #bitcoin #ethereum #litecoin #dash
913163769982808064,2017-09-27 22:09:43,@arronschaar @seweso @adam3us @Beautyon_ @DollarJones 1) It provides twice as much tx capacity on chain. 2) It was‚Ä¶ https://t.co/zBzOcPSceX
913163548053794816,2017-09-27 22:08:50,@dav3life @Beautyon_ @DollarJones I have zero stake in any mining company. I have a huge stake in Bitcoin.
913152561170980864,2017-09-27 21:25:10,"@MishaRogov @TenaciousBTC @SatoshiLite @thomastoscani I don't want to replace Core, and I love atomic swaps, they'r‚Ä¶ https://t.co/HseDuqcCM4"
913152302629896192,2017-09-27 21:24:09,@SkyCorridors Check out the reviews on Amazon... https://t.co/Ur6ZDP6NYK
913139107399835648,2017-09-27 20:31:43,"@TenaciousBTC @SatoshiLite @thomastoscani More insults will help, try that."
913138391054565376,2017-09-27 20:28:52,@nitroXplicit @SatoshiLite @YACoinBen @TenaciousBTC @thomastoscani So we shouldn't advocate SegWit because that modified Bitcoin?
913138201711173632,2017-09-27 20:28:07,"@h2woody @coindesk I'm anti regulation, but pro tokenization. Anything that grows the crypto industry will help dis‚Ä¶ https://t.co/u2liJnbn0q"
913137803034112000,2017-09-27 20:26:32,@TenaciousBTC @SatoshiLite @thomastoscani I'm not dragging anything anywhere. I have no power over you. I'm standin‚Ä¶ https://t.co/3Xe6s8yY9w
913137416176680960,2017-09-27 20:24:59,@bradmillscan @SatoshiLite @thomastoscani None of the 2X camp supported Bitcoin Cash (other than ViaBTC which reneg‚Ä¶ https://t.co/QeeJS90tG0
913137093416595456,2017-09-27 20:23:42,@TenaciousBTC @SatoshiLite @thomastoscani I'm the only one who supports it? Then it'll fail immediately so what are you worried about?
913136740323385344,2017-09-27 20:22:18,"@mcrsqr @hodlonaut @SatoshiLite @thomastoscani His hashpower continues to signal NYA, so until that changes, that's‚Ä¶ https://t.co/TUwBn5TiMU"
913135421495713792,2017-09-27 20:17:04,@TenaciousBTC @SatoshiLite @thomastoscani Which users are you referring to?  Please show me the data. CoinBase and‚Ä¶ https://t.co/XR6oOHVFOF
913135062765363200,2017-09-27 20:15:38,"@SatoshiLite @thomastoscani Depends what ""consensus"" means. I feel that word is never defined. For example: NYA has‚Ä¶ https://t.co/mgeEVDelpP"
913134688788606976,2017-09-27 20:14:09,"@DerekBa79 @SatoshiLite @thomastoscani It's being worked on. Not as easy as flipping on a switch, as 0.15 doesn't f‚Ä¶ https://t.co/pVhlEopZaJ"
913134425226977280,2017-09-27 20:13:06,"@SatoshiLite @thomastoscani Frankly - I can see both sides of the argument. There are good reasons both for, and ag‚Ä¶ https://t.co/F5Qn1jillb"
913134219253055488,2017-09-27 20:12:17,"@Seccour_FR @jgarzik If the market doesn't want it, the fork will fail, so don't worry about it."
913133834689945600,2017-09-27 20:10:46,"@hodlonaut @SatoshiLite @thomastoscani By one miner, ViaBTC. And yes, shame on them. ~94% continue signaling NYA and did not support BCH."
913133374364979200,2017-09-27 20:08:56,"@Seccour_FR @jgarzik You act like only 12 companies wanted a bigger block size, and everyone else opposed it."
913132807118974977,2017-09-27 20:06:41,"@SatoshiLite @thomastoscani Personally, I signed it so that SegWit would activate by achieving, finally, enough sup‚Ä¶ https://t.co/I5xThQ2UNB"
913092479620071424,2017-09-27 17:26:26,"""Fortress is reportedly moving to establish a $500 million hedge fund focused on cryptocurrency"" https://t.co/t0dl5BB4ZN #bitcoin #ethereum"
913091683977269248,2017-09-27 17:23:16,"@CareNotDude @benvh @cryptotraveler @Beautyon_ @DollarJones True. And being invited does not a closed door meeting make, either."
913088156169207809,2017-09-27 17:09:15,Regulated ICOs Arrive: Overstock to Open Exchange for Legal Token Trading https://t.co/mWNVlkV170 via @CoinDesk  #tokenization
913072312068354048,2017-09-27 16:06:17,"A book that will never, ever, ever, be taught in public schools. https://t.co/hdA9ksNioI"
913063173275521024,2017-09-27 15:29:59,Biggest news in Crypto today: @Overstock Unit Starting an Exchange for Digital Coin Trading https://t.co/rA908OLigo #bitcoin #ethereum
913060816059957253,2017-09-27 15:20:37,Watch ‚ÄúKeepKey: Your Private Bitcoin Vault‚Äù on #Vimeo https://t.co/pIc5IGtIng
913051660997476352,2017-09-27 14:44:14,@cryptotraveler @benvh @Beautyon_ @DollarJones Nobody made decisions for them. Nobody is forcing anything on Core.‚Ä¶ https://t.co/OXiW29kZlD
913051477056266240,2017-09-27 14:43:30,"@cryptotraveler @benvh @Beautyon_ @DollarJones Well, SegWit signaling from miners was ~40% for over a year, then NY‚Ä¶ https://t.co/w8ib5qI9ck"
913051204107636736,2017-09-27 14:42:25,"@Beautyon_ @StopAndDecrypt @DollarJones ViaBTC was, yes. Vaultoro I respect, and I wish they wouldnt have pulled ou‚Ä¶ https://t.co/z9loQw1sFH"
913050643530522624,2017-09-27 14:40:11,@benvh @cryptotraveler @Beautyon_ @DollarJones No it wasn't. Core members were invited over and over and over again‚Ä¶ https://t.co/nBPWOKVses
913050233214451712,2017-09-27 14:38:33,"@Ether0x Exactly. The market will decide. No corporation, or individual, or group of devs, controls Bitcoin."
913049994243981313,2017-09-27 14:37:36,@Beautyon_ @StopAndDecrypt @DollarJones Im unaware of a hurricane or tornado which precludes ability to follow thro‚Ä¶ https://t.co/SJ6FzJFUhU
913049431821316096,2017-09-27 14:35:22,@cryptotraveler @Beautyon_ @DollarJones The reason to do it right now is that commitment was made with miners: acti‚Ä¶ https://t.co/TS3NJy3Mov
913049220025688064,2017-09-27 14:34:32,"@MikkoLoukola @morcosa I would LOVE that and have been advocating it for years. Yet, Core has never proposed block‚Ä¶ https://t.co/70XNzCmUjW"
913048961157443585,2017-09-27 14:33:30,@Beautyon_ @StopAndDecrypt @DollarJones Remind me never to do business with you.
913048557132775424,2017-09-27 14:31:54,"@Beautyon_ @DollarJones For some, it is. For me, it's not. I'd strongly prefer Core to merge 2MB and put this stupi‚Ä¶ https://t.co/475XrlQst0"
913047800274812928,2017-09-27 14:28:53,@Beautyon_ @StopAndDecrypt @DollarJones I'm not in the habit of looking for ways out of my commitments. I've worked‚Ä¶ https://t.co/r1s3eAvYPV
913047405901242373,2017-09-27 14:27:19,"@Beautyon_ @DollarJones I don't worry about 2MB base blocks, no. Most of Core (other than Luke-jr) isn't opposed ei‚Ä¶ https://t.co/uToK0FaTTR"
913046862352883712,2017-09-27 14:25:10,"@LukeMonson Yes absolutely. It's in development, and we've advocated SegWit since its inception."
913046515492335616,2017-09-27 14:23:47,"@JaredHedglin @morcosa Thanks for being civil. If ""we were to politely ask to reevaluate"" it would be seen as yet a‚Ä¶ https://t.co/cyap2PXlKc"
913046155931533312,2017-09-27 14:22:21,"@wurstgelee @Beautyon_ Please explain how NYA signees will ""control Bitcoin""?  That's a myth, a sophism, betraying‚Ä¶ https://t.co/Du1xtlFGWV"
913045827039326209,2017-09-27 14:21:03,@Beautyon_ @DollarJones It's amazing to me that those who worry about centralization seem to have zero concern with‚Ä¶ https://t.co/Bhhunpmgoo
913045419826933761,2017-09-27 14:19:26,@StopAndDecrypt @Beautyon_ @DollarJones ShapeShift is absolutely adopting SegWit (dev in progress). We have FOREVER‚Ä¶ https://t.co/hwnCUyGddO
913045077873778688,2017-09-27 14:18:04,"@mdotbit Same way it happened in the ETH/ETC split. Use a splitting tool. If someone wants to break off from the consensus chain, they can."
913044014529617921,2017-09-27 14:13:51,@mdotbit That would guarantee a chain split and would protect the minority chain. The goal is one clear majority ch‚Ä¶ https://t.co/udQqDBOCdK
913043327615774721,2017-09-27 14:11:07,"@Beautyon_ @DollarJones What do you mean? Core won't propose a 2MB block. I wish they would, the industry and miner‚Ä¶ https://t.co/fFAfBsRwZu"
913042680011096064,2017-09-27 14:08:33,"@mdotbit Ultimately users do have the most control. So yeah, they'll decide what Bitcoin is, not corps. If users ha‚Ä¶ https://t.co/k62TyGPHQy"
913042315463114752,2017-09-27 14:07:06,@JaredHedglin @morcosa Because 94% of miners are signaling for it. They already activated SegWit on the promise of‚Ä¶ https://t.co/HuI1GNuq9q
913042005189550085,2017-09-27 14:05:52,@Beautyon_ So you'll just dodge the question I guess? Does Core currently control Bitcoin?
913041685247954945,2017-09-27 14:04:35,"@DollarJones @Beautyon_ Please point me to the clause in NYA that ""fires Core.""  The NYA was agreement, a compromis‚Ä¶ https://t.co/U831hZ1NEf"
913041309312491524,2017-09-27 14:03:06,"@ForrestKollar The moniker of ""Bitcoin"" is decided by the market. Not by the few individuals who control one reposi‚Ä¶ https://t.co/EQk0EeZaIQ"
913040851852341248,2017-09-27 14:01:17,"@BTCoinInfo @Beautyon_ Core has influence, but they don't control Bitcoin. Similarly, miners, and businesses, and u‚Ä¶ https://t.co/JT0cEZYpyP"
913040212699226113,2017-09-27 13:58:44,"@morcosa You're a good man, Alex. Thank you for the work you do and for being one of the more civil and productive in this debate."
913039596232962048,2017-09-27 13:56:17,@ytengra @Changelly_team Actually they didn't but looks like their marketing trick worked on a bunch of people  https://t.co/91IzRvjBdK
913039111362973697,2017-09-27 13:54:22,@Beautyon_ Bitcoin cannot be taken over. That's the point of Bitcoin. Saying NYA is a takeover implies Core current‚Ä¶ https://t.co/Q22JSK7TN7
913037367707000833,2017-09-27 13:47:26,JPMorgan Ordered To Pay Over $4 Billion To Widow And Family | Zero Hedge https://t.co/xlnwQ1uCVa
913035846931984384,2017-09-27 13:41:23,"SegWit2x is not a ""corporate takeover."" It is a change of 1MB to 2MB base blocksize. Core can adopt if they like, and I hope they do."
912886607937642496,2017-09-27 03:48:22,"@BitConsultants @jasonmsteele @spair @ShapeShift_io We are, and we've advocated SegWit since its inception."
912877657477472256,2017-09-27 03:12:48,"@RoadStress @DaperApe Did you even read their blog post? They don't support it yet, they just accept SegWit transac‚Ä¶ https://t.co/HHtfSrNw8r"
912877339955970048,2017-09-27 03:11:32,@Bilthon @ShapeShift_io Likely similar to when ETH and ETC split. Bigger problem will be if a minority chain has to‚Ä¶ https://t.co/6jIdPnjxvm
912852973830545408,2017-09-27 01:34:43,"@jasonmsteele @spair .So ragequit like Mike Hearn because maxblocksize is 2MB instead of 1MB. Got it. Personally, I‚Ä¶ https://t.co/0kngWfDlO9"
912852323814195200,2017-09-27 01:32:08,@joeunderthesky @KingCrypto2 @BittrexExchange @SaltLending That's nonsense. Exchanges don't pick prices of assets.‚Ä¶ https://t.co/AwcCRskJA5
912796223286808576,2017-09-26 21:49:13,RT @laurashin: Excellent post by @bitcom21 of @blockchaincap on what the new world of #crypto-finance will do to incumbents: https://t.co/9‚Ä¶
912794750360547328,2017-09-26 21:43:22,"RT @PerBylund: Oxymoron of the day: ""Free Trade Agreement."" The only agreement necessary for free trade is to not intervene with trade."
912792390208864256,2017-09-26 21:33:59,RT @CNBC: Early bitcoin investor Palihapitiya declares 'nobody can stop it' https://t.co/02EFhAZMnJ
912787594856894464,2017-09-26 21:14:56,@Spindle534 We'll get there!
912466809323843585,2017-09-26 00:00:14,KeepKey hardware wallets for Bitcoin and Ethereum are back in stock  https://t.co/aIOvV2lxr6
912335016956329984,2017-09-25 15:16:33,RT @korean_crypto: 1. Korea will finally have its own altcoin exchange with 111 coins listed. The exchange is owned by KakaoStock. Kakaotal‚Ä¶
912155344700301312,2017-09-25 03:22:35,"@eric_lombrozo @GovJVentura 95% of his views are the same as yours and mine. Lets focus on our similarities, not our marginal disagreements."
912153969027248129,2017-09-25 03:17:07,"Thanks for joining us for dinner! However, my name is spelled with a K, so please remember that Marea. https://t.co/jSuvAf8mMl"
912015709814665216,2017-09-24 18:07:44,@jfmanningiii 140 characters bro
911827511054524417,2017-09-24 05:39:54,"Dinner w #RonPaul. Talked Bitcoin, and bringing down The Fed. Hopefully it gave comfort to an old man who fought hi‚Ä¶ https://t.co/pHNhfDVh8t"
911716872852094976,2017-09-23 22:20:16,Ron Paul speaking at #NexusConference. Upon opening remarks the audience errupted into chants of #EndTheFed. A good‚Ä¶ https://t.co/LbhlUm5DP3
911644444901892097,2017-09-23 17:32:27,RT @jpblincoe: .@ErikVoorhees with Jesse 'The Body' Ventura moderating the Colorado Gubernatorial debate at @nexusconf in Aspen https://t.c‚Ä¶
911439446603554816,2017-09-23 03:57:52,Escobar in Aspen. Right now! #NexusConference
911376226161496064,2017-09-22 23:46:39,RT @moneytrigz: Bitcoin Voucher Cards Now Available Throughout 50 Carrefour Supermarkets in spain +4000 other physical locations #bitcoin $‚Ä¶
910919576635957248,2017-09-21 17:32:05,RT @FreeSocietyCom: https://t.co/IL9Ca2yJzu to Form the World's First Libertarian Country https://t.co/ud9v257z1I
910682913460469761,2017-09-21 01:51:40,See you three soon! #NexusConference https://t.co/oiNfFjIm0a
910528625350287360,2017-09-20 15:38:35,@Robtichenor @ShapeShift_io Discussed here: https://t.co/8hiRtAfynn  (tldr it isn't fully supported in Core yet wit‚Ä¶ https://t.co/t7hHxqy7Sa
910509081336541186,2017-09-20 14:20:56,"CoinCap lists in realtime all digital assets &amp; cryptocurrencies, sorted by market cap https://t.co/X4HCHctfC0 #bitcoin #ethereum #blockchain"
910504024134246400,2017-09-20 14:00:50,@hernzzzzzz @KryptykHex @ShapeShift_io Discussed that here: https://t.co/8hiRtAfynn
910503577746993152,2017-09-20 13:59:03,"@eric_lombrozo @LukeDashjr Agreed, and I do."
910502089729515520,2017-09-20 13:53:09,"RT @bobbyclee: #Bitcoin price is resilient b/c its value doesn't come from Gov't Acceptance/Regulation.
Its value comes from failure of #Fi‚Ä¶"
910125754741964801,2017-09-19 12:57:43,Crypto assets let nonprofits raise money like never before https://t.co/gmNWweSaGS via @VentureBeat
909794141042814977,2017-09-18 15:00:01,I guess this is a good example of the profound difference in vision I have with someone like @LukeDashjr https://t.co/Xe8S1FvLrU
909598605425598464,2017-09-18 02:03:01,"RT @lgreenmarketing: Just realized that I can use @ShapeShift_io to trade any ERC20 token with my #ETH address on @exodus_io.

So. cool.

#‚Ä¶"
909478900836687872,2017-09-17 18:07:21,RT @cryptomanran: https://t.co/5VJ39aDVSV
909464364536651778,2017-09-17 17:09:36,"RT @brucefenton: This morning, the @NewYork_SEC was asking for tips about fraud... https://t.co/tVYA3ehsvl"
909257535772749824,2017-09-17 03:27:44,@morcosa @hoaxChain @evanthefreeman @Ragnarly @CharlieShrem @ShapeShift_io @bitcoincoreorg @f2pool_wangchun If sign‚Ä¶ https://t.co/CnQ6ZuHO4R
909257247590555649,2017-09-17 03:26:35,@BrendanEich @dpinsen @realronroyston Hmmm... much value comes from the elimination of useful work though. Twitter‚Ä¶ https://t.co/VSs7aV2cZv
909256626351226880,2017-09-17 03:24:07,@morcosa @hoaxChain @evanthefreeman @Ragnarly @CharlieShrem @ShapeShift_io @bitcoincoreorg Thats a fair suggestion‚Ä¶ https://t.co/U69w1hI9LV
909255207845953539,2017-09-17 03:18:29,"@EdKrassen @JulianAssange .Cell phones, mathematics, and language also help criminals launder money."
909254788834983941,2017-09-17 03:16:49,@hoaxChain @evanthefreeman @Ragnarly @CharlieShrem @ShapeShift_io @bitcoincoreorg Okay. Keep insulting people who disagree with you.
909254303147204608,2017-09-17 03:14:53,"@BrendanEich @dpinsen @realronroyston Labor is def not the ""source of value."" Utility is. I could dig hole with spo‚Ä¶ https://t.co/iVArRx84da"
909252006644088832,2017-09-17 03:05:46,@hoaxChain @evanthefreeman @Ragnarly @CharlieShrem @ShapeShift_io @bitcoincoreorg The chain with 95% hashrate is no‚Ä¶ https://t.co/9076f148Bs
909244545778323457,2017-09-17 02:36:07,@hoaxChain @evanthefreeman @Ragnarly @CharlieShrem @ShapeShift_io @bitcoincoreorg Citation?
909228804085776385,2017-09-17 01:33:34,@Ragnarly @eric_lombrozo @ShapeShift_io @bitcoincoreorg Honest question: why do you think it passed because of UASF?
909228621709103105,2017-09-17 01:32:50,"@eric_lombrozo @Ragnarly @ShapeShift_io @bitcoincoreorg Yet somehow, SegWit happened immediately after miners start‚Ä¶ https://t.co/gKTQ6cF9n9"
909228281899159552,2017-09-17 01:31:29,"@eric_lombrozo @Ragnarly @ShapeShift_io @bitcoincoreorg Well that will be learned in November, and we can discuss after it is clear."
909227811340201984,2017-09-17 01:29:37,"@eric_lombrozo @Ragnarly @ShapeShift_io @bitcoincoreorg 2+ years of SegWit not happening convinced me otherwise, bu‚Ä¶ https://t.co/qIHEKB6Hrs"
909227492543799296,2017-09-17 01:28:21,"@Ragnarly @ShapeShift_io @bitcoincoreorg Actually I'm trying to fulfill a commitment I made, which was to activate‚Ä¶ https://t.co/HAS0gjgcBl"
909227209319120898,2017-09-17 01:27:13,"@eric_lombrozo @Ragnarly @ShapeShift_io @bitcoincoreorg Well, that's where we differ then. I think Bitcoin w/ SegWi‚Ä¶ https://t.co/Dr1mszyKVn"
909225921542021122,2017-09-17 01:22:06,@eric_lombrozo @Ragnarly @ShapeShift_io @bitcoincoreorg Commitment to the 2MB block was made to get SegWit passed.‚Ä¶ https://t.co/3nkH17YVlP
909225072413564928,2017-09-17 01:18:44,@Ragnarly @ShapeShift_io @bitcoincoreorg I don't remember the NYA stipulating that I may not retweet things. Good thing you're here to help!
909220999379476480,2017-09-17 01:02:33,@THgersh @CryptoCoinsNews I'm quite sure it would apply to all crypto
909220718105251840,2017-09-17 01:01:26,@Ragnarly @ShapeShift_io @bitcoincoreorg Not true. Please stop spreading propaganda.... or at least fact check firs‚Ä¶ https://t.co/7K6DI4KzYz
909220294895783937,2017-09-17 00:59:45,U.S. Bill Would Ease Bitcoin Tax Regulations for Small Transactions https://t.co/LqGSzF9yrc via @CryptoCoinsNews
909132458225844224,2017-09-16 19:10:43,@metamarcdw @MrHodl @francispouliot_ @BitcoinMagazine Can I see the data on which you're basing that?
909132138393436161,2017-09-16 19:09:27,"@gmannsven Yeah, best way is to buy Bitcoin"
909132031048552448,2017-09-16 19:09:01,"@realronroyston @BrendanEich It may be imposed with those things, but it's not backed by anything. Backing means convertible into something."
909131378825949189,2017-09-16 19:06:26,Best Dimon-burn yet. https://t.co/3zxPs2PsZK
909131042858033152,2017-09-16 19:05:06,"RT @nomiprins: Just handed in final revisions for my next book #Collusion. 
Manuscript clocked in at 496 pages,1300 footnotes! @nationbooks‚Ä¶"
909086906025115653,2017-09-16 16:09:43,"Yes!! The Federal Reserve has been selling ""USD coin"" and continually debasing it! Hundreds of millions of victims.‚Ä¶ https://t.co/v2PdPnMHSb"
909086416512126977,2017-09-16 16:07:46,"@MrHodl @francispouliot_ @BitcoinMagazine Mischaracterization isn't helping anything. You honestly think only ""1 de‚Ä¶ https://t.co/TnC6YUBkuO"
909085390191185920,2017-09-16 16:03:41,@MrHodl @francispouliot_ @BitcoinMagazine I wouldn't follow that chain and would oppose any such proposal.
909084514827276289,2017-09-16 16:00:12,@Beautyon_ @francispouliot_ @BitcoinMagazine Give me a specific action and I'll judge it.
909084221888696320,2017-09-16 15:59:03,@MrHodl @francispouliot_ @BitcoinMagazine I'm encouraging SegWit2x which appears to have supermajority of hashpower‚Ä¶ https://t.co/EvRou9160r
909082662488432640,2017-09-16 15:52:51,@MrHodl @francispouliot_ @BitcoinMagazine As if I can only run one node huh?
909082370736828417,2017-09-16 15:51:41,@Beautyon_ @francispouliot_ @BitcoinMagazine Yep I agree. Good thing differing bitcoin clients aren't evil.
909076661873733632,2017-09-16 15:29:00,"@Robpares73 @BitcoinMagazine We run many nodes, and continue to support and endorse SegWit2x."
909076434764701698,2017-09-16 15:28:06,@jlbtc @BitcoinMagazine There is good work in 0.15. Doesn't mean I agree with the decision to exclude BTC1 nodes. B‚Ä¶ https://t.co/hgXMFg8lFe
909076143965224965,2017-09-16 15:26:57,@francispouliot_ @BitcoinMagazine Not sure why my support of SegWit2x means I can't also promote and support the go‚Ä¶ https://t.co/VwXR3SecqH
909032812606558208,2017-09-16 12:34:46,RT @JulianAssange: Why all freedom loving people and states need Bitcoin part 29192: https://t.co/6mivKUh3wZ
908783810149474304,2017-09-15 20:05:19,‚ÄúRoadmap: Protecting Intellectual Property in Virtual Worlds‚Äù by Philip Rosedale https://t.co/WtnCjJJacR #metaverse #blockchain #bitcoin
908749327215902720,2017-09-15 17:48:18,CNBC: Bitcoin fans fire back at Jamie Dimon after 'fraud' comment https://t.co/9SCmORAnbU
908482654194069504,2017-09-15 00:08:38,RT @21: We have a new token. There's no ICO. You earn tokens just for signing up. And it works even if buying BTC is banned. https://t.co/P‚Ä¶
908482589090095104,2017-09-15 00:08:22,Bitcoin Core 0.15.0 Released: Here‚Äôs What‚Äôs New https://t.co/S6evH0c8yi via @BitcoinMagazine
908386188020547584,2017-09-14 17:45:18,Love this real world example... international B2B payments with Bitcoin (why not Dimon's Chase Bank???)  https://t.co/FayLUMfHZu
908351184485761025,2017-09-14 15:26:13,"RT @queentatiana: New #TatianaShow on #Steemit! Myself &amp; @Vaultoro interview @ErikVoorhees of @ShapeShift_io &amp; @KatMurti! Listen in!
https:‚Ä¶"
908333091474640899,2017-09-14 14:14:19,RT @ShapeShift_io: ShapeShift joins the Bitcoin Association of Switzerland! @bitcoin_ch https://t.co/e62GLzrrUR
908332975414157312,2017-09-14 14:13:52,RT @Prism_Exchange: Amazing group at the #AtlantaBlockchainMeetup tonight to hear @metaraine talk Blockchain https://t.co/EIsT4W8dla
908098386548498432,2017-09-13 22:41:41,‚ÄúTransactions are getting cheaper‚Äî SegWit now on BitGo‚Äù by @murchandamus https://t.co/H8i1v5B823 #bitcoin
907964190807040000,2017-09-13 13:48:26,@amdeo23 Both of them... but one has a special government license and can make money out of thin air.
907817260034572288,2017-09-13 04:04:35,Korea‚Äôs Coinone Launches Physical Cryptocurrency Exchange https://t.co/TNMMuqjGhE via @BTCTN
907814177858654208,2017-09-13 03:52:21,"RT @laurashin: Omg, finally read the Jamie Dimon remarks on #Bitcoin. He said ""eventually it will be closed."" üòÇüòÇüòÇ"
907787934765506560,2017-09-13 02:08:04,So Dimon calls Bitcoin a fraud... here is JP Morgan Chase' record of abuses https://t.co/rMXzMxpI35 https://t.co/FNwX2I6ePv
907720821220663298,2017-09-12 21:41:23,Consumer protection = not taking peoples' data in the first place.  Equifax compromised 143 million people https://t.co/SAUToGR0Rg
907720569981771777,2017-09-12 21:40:23,"Chatbot lets you sue Equifax for up to $25,000 without a lawyer https://t.co/XMPOOzvk66 via @Verge"
907718166205259776,2017-09-12 21:30:50,How would he know?? He can't Cmd-O their account balances. https://t.co/xJtL1jYUct
907706514877464576,2017-09-12 20:44:32,RT @morcosa: This is the problem with this space. No. Just no.  Don't encourage anyone to attack anyone else's software. Immoral and illega‚Ä¶
907706429204717568,2017-09-12 20:44:11,"RT @SaltLending: Join #saltlending at the #rockymountain #blockchain #Meetup , Nov. 3, at Galvanize in #denver.

https://t.co/0DxzxzLegN"
907679079469654018,2017-09-12 18:55:31,"My memory is failing, was it Bitcoin or was it JP Morgan that was bailed out by the government? https://t.co/DHqFzr5UJN"
907267518875574272,2017-09-11 15:40:07,@hernzzzzzz @jasonmsteele @TheBlueMatt @kyletorpey @eric_lombrozo What am I quitting?
906879741348610048,2017-09-10 13:59:14,@LarryBitcoin @MrHodl @WhalePanda @solitude_dude2 @ShapeShift_io Is a PoW change fork also an altcoin?
906879369347395584,2017-09-10 13:57:45,@jasonmsteele @TheBlueMatt @kyletorpey @eric_lombrozo Always sad and unfortunate to see good people abandon a proje‚Ä¶ https://t.co/I8MRhpNh1X
906139357953662977,2017-09-08 12:57:12,@BITCOlNCASH @mikebelshe @anondran @alistairmilne @rogerkver @justicemate @a3456gf @brianchoffman @brian_armstrong‚Ä¶ https://t.co/5qKTRSqZCV
906138571618172928,2017-09-08 12:54:05,Japan‚Äôs Internet Giant GMO Launching Bitcoin Mining with 7nm Chips https://t.co/xXew3Dscek via @BTCTN
905930427088592896,2017-09-07 23:06:59,This is why ShapeShift doesnt extract personal information from customers. Massive Equifax data leak. https://t.co/CWYIAIpdJ6
905898334228971520,2017-09-07 20:59:28,This Bill Would Finally Let You Make Cryptocurrency Purchases Without Paying Capital Gains Taxes https://t.co/Bg6wcWSwsP via @motherboard
905839710026686465,2017-09-07 17:06:31,@Crackupboom1 No fees. There is just an exchange rate.
905839641718251520,2017-09-07 17:06:14,@CryptoLily A human or machine that executes an order on ShapeShift
905839177928908800,2017-09-07 17:04:24,"Reps. Polis &amp; Schweikert introduce Cryptocurrency Tax Fairness Act in Congress
 https://t.co/l7BeR9WXdV #bitcoin #ethereum #blockchain"
905837859986227201,2017-09-07 16:59:10,Bitcoin up sevenfold since Warren Buffett warned digital currency was a 'mirage' https://t.co/7YRarMwpyJ
905793418110001152,2017-09-07 14:02:34,ShapeShift just passed 2 million customer orders processed in 2017.
905627070176174080,2017-09-07 03:01:33,Dubai condos selling for Bitcoin https://t.co/0ejfgIb6uv
905502654943469568,2017-09-06 18:47:11,"@cryptobaguette @twobitidiot Plus an hour at the bank, and thats only domestic. My time is worth something."
905501935423205376,2017-09-06 18:44:19,@francispouliot_ @MrHodl @WhalePanda @solitude_dude2 @ShapeShift_io Where is the list of 60 explicitly opposing businesses?
905477028274593792,2017-09-06 17:05:21,"RT @petertoddbtc: Remember: the census was used to round up Japanese in WW2.

The only data govt can't use against you is data it doesn't h‚Ä¶"
905476590427029504,2017-09-06 17:03:36,Sending an international wire is an exercise in torture. Banks are so screwed. #bitcoin
905464879791742976,2017-09-06 16:17:04,"RT @alistairmilne: Why is BTC going parabolic?
New Coinbase users per day:  33,000
Bitcoin mined per day:  1800
...not to mention every oth‚Ä¶"
905167525012414464,2017-09-05 20:35:29,"Bitcoin FTW
https://t.co/RTvDRITR71"
905139351314513920,2017-09-05 18:43:32,"@taidi_ji @rjenkins_atl I'll stick with consensus, whatever the market prefers"
905138611816771584,2017-09-05 18:40:36,@datcryptodough @jgarzik @morcosa Irrelevant? You're appealing to Satoshi and then pretending he didn't desire 1MB to grow?
905138343872159744,2017-09-05 18:39:32,"@taidi_ji @rjenkins_atl I pick BTC, upgraded with SegWit and with a 2MB base block."
905138042481946624,2017-09-05 18:38:20,"@MishaRogov @jgarzik @morcosa My agenda for Bitcoin is, and always has been, for it to become the world's financial‚Ä¶ https://t.co/mlnyBQ0Hk5"
905136830877597696,2017-09-05 18:33:31,While claiming to care about users the anti-S2X crowd sure seems to completely dismiss opinions from wallet co's‚Ä¶ https://t.co/XbaMyya98z
905136109255966721,2017-09-05 18:30:39,"@BTCarchitect An observer, user, and participant of the ecosystem. It's my personal opinion, explained more thoroug‚Ä¶ https://t.co/r6ZwwIT5jq"
905135206218178562,2017-09-05 18:27:04,@datcryptodough @jgarzik @morcosa You mean his anti-spam measure which he predicted would be increased as network g‚Ä¶ https://t.co/PmJorKZybs
905130548443709441,2017-09-05 18:08:33,@MrHodl @Bilthon @finway2 @solitude_dude2 @francispouliot_ @WhalePanda @ShapeShift_io I'm not assuming anything oth‚Ä¶ https://t.co/mojIFmge0t
905129839757148160,2017-09-05 18:05:44,@Bilthon @finway2 @solitude_dude2 @francispouliot_ @MrHodl @WhalePanda @ShapeShift_io And you're assuming it will b‚Ä¶ https://t.co/BGP01hMgsJ
905129245449502724,2017-09-05 18:03:23,"@morcosa @jgarzik So the process of change is only:  Core devs propose, and if it happens, then that's okay, if not‚Ä¶ https://t.co/vQGQDZbbPx"
905128931094708224,2017-09-05 18:02:08,"@BlueDavid Honest question: Both UASF and NYA happened around same time, and both plausibly effected SegWit into ex‚Ä¶ https://t.co/NYz9lYFqIf"
905089211715379200,2017-09-05 15:24:18,@hernzzzzzz @francispouliot_ @morcosa @jgarzik I want SegWit and I want bigger blocks. We shall see if I'm alone in‚Ä¶ https://t.co/UR57p23o92
905088696369557504,2017-09-05 15:22:15,@morcosa @jgarzik So if Satoshi has set blocksize=2MB you just wouldn't find the project interesting? Only 1MB is interesting?
905088210430083072,2017-09-05 15:20:19,@hoaxChain @francispouliot_ @WhalePanda @MrHodl @solitude_dude2 @ShapeShift_io The majority has no idea this debate‚Ä¶ https://t.co/B99lvNPhDA
905087563693568000,2017-09-05 15:17:45,"@hernzzzzzz @francispouliot_ @morcosa @jgarzik Does ""valid"" mean, ""agrees with Hernz?"""
905087374559870977,2017-09-05 15:17:00,@MrHodl @hoaxChain @francispouliot_ @WhalePanda @solitude_dude2 @ShapeShift_io By creating a frictionless exchange‚Ä¶ https://t.co/mqY498l4kb
905087066588856320,2017-09-05 15:15:47,@CryptoRye @francispouliot_ @MrHodl @WhalePanda @solitude_dude2 @ShapeShift_io Source?
905087002000867329,2017-09-05 15:15:31,"@morcosa @jgarzik I think both Jeff and I will happily move forward with whatever consensus is, because we are dedi‚Ä¶ https://t.co/mmEOT5jp94"
905086576878804992,2017-09-05 15:13:50,@francispouliot_ @WhalePanda @MrHodl @solitude_dude2 @ShapeShift_io @bitcoincoreorg The time for that was 2 years a‚Ä¶ https://t.co/fOayESQh47
905086406904528896,2017-09-05 15:13:09,@hoaxChain @francispouliot_ @WhalePanda @MrHodl @solitude_dude2 @ShapeShift_io Opting into the majority chain doesn‚Ä¶ https://t.co/FfBCXYdliS
905085851251556352,2017-09-05 15:10:57,"@francispouliot_ @MrHodl @WhalePanda @solitude_dude2 @ShapeShift_io Democracies are coercive, so no. This is a bloc‚Ä¶ https://t.co/GeVRi0b7pi"
905085463337172992,2017-09-05 15:09:24,@WhalePanda @francispouliot_ @MrHodl @solitude_dude2 @ShapeShift_io Development takes time. And if you know a bette‚Ä¶ https://t.co/cVYv95jc29
905084570722222080,2017-09-05 15:05:51,@francispouliot_ @MrHodl @WhalePanda @solitude_dude2 @ShapeShift_io Only extremely damaging if supporters of minori‚Ä¶ https://t.co/qqhhfnmVNX
905084337208442881,2017-09-05 15:04:56,@hoaxChain @francispouliot_ @WhalePanda @MrHodl @solitude_dude2 @ShapeShift_io Bitcoin is about financial sovereign‚Ä¶ https://t.co/rYuoShPDH7
905083922849054720,2017-09-05 15:03:17,@solitude_dude2 @WhalePanda @ShapeShift_io I've met many. Let's not allow anecdotes to overwhelm our judgment.
905083585920622592,2017-09-05 15:01:57,"@francispouliot_ @MrHodl @WhalePanda @solitude_dude2 @ShapeShift_io Then it will fail, so stop worrying."
905083133871013888,2017-09-05 15:00:09,@francispouliot_ @WhalePanda @MrHodl @solitude_dude2 @ShapeShift_io This isn't complicated. We're in the midst of e‚Ä¶ https://t.co/vmEmXLGzmK
905082803238219776,2017-09-05 14:58:50,@MrHodl @francispouliot_ @WhalePanda @solitude_dude2 @ShapeShift_io Meaning: if community moves forward with SegWit‚Ä¶ https://t.co/Ewh2TFD15r
905081689868705792,2017-09-05 14:54:25,@misterdna @MrHodl @WhalePanda @solitude_dude2 @ShapeShift_io @TheCryptoShow It's good that options can happen. Lon‚Ä¶ https://t.co/iKtVL77PmT
905081308119838720,2017-09-05 14:52:54,"@francispouliot_ @WhalePanda @MrHodl @solitude_dude2 @ShapeShift_io Well yeah, they created ABC as a Plan B if UASF‚Ä¶ https://t.co/v4VH10c7h2"
905081080851578885,2017-09-05 14:51:59,"@a_Cat_named_Joe @nilspn @adam3us @Ferdinando1970 @rjenkins_atl So you don't have a source for that claim, got it."
905080806871154689,2017-09-05 14:50:54,"@SuperFatSnorlax @Skonialo @CassandraRules Their land should never have been stolen, true. That was 100-300 years a‚Ä¶ https://t.co/iihgwbCTtI"
905080432605020162,2017-09-05 14:49:25,"@Skonialo @CassandraRules Sorry, no. As a business owner, and property owner, if I'd like to employ an immigrant, o‚Ä¶ https://t.co/n6lRhJtEPt"
905080175989219338,2017-09-05 14:48:24,@WhalePanda @francispouliot_ @MrHodl @solitude_dude2 @ShapeShift_io ViaBTC did.  Has Bitmain been supporting BCash?
905079972548689920,2017-09-05 14:47:35,"@francispouliot_ @morcosa You're saying @jgarzik will refer to the minority chain as Bitcoin, even after it's clear‚Ä¶ https://t.co/4mD1q21lML"
905079063995236352,2017-09-05 14:43:59,"@MrHodl @WhalePanda @solitude_dude2 @ShapeShift_io Well, I guess we'll see about that in November, whether they fork away from consensus."
905076338444222464,2017-09-05 14:33:09,@KolmanSoifer @jgarzik @morcosa You have every right to do so!
905075920540655617,2017-09-05 14:31:29,@morcosa If it has 1/10th value after a reasonable period of time (days or weeks) I'll abandon it and move forward with the consensus chain.
905075633868259328,2017-09-05 14:30:21,@WhalePanda @solitude_dude2 @ShapeShift_io I was advocating that Core plan such a fork over 2 years ago.
905074427397783553,2017-09-05 14:25:33,"@hoaxChain @morcosa The super majority doesn't even know this debate is a thing, actually."
905074197939994624,2017-09-05 14:24:38,@a_Cat_named_Joe @nilspn @adam3us @Ferdinando1970 @rjenkins_atl Citation needed pls
905073751586332673,2017-09-05 14:22:52,"@bergealex4 Okay, well keep enjoying your SegWit transactions now that SegWit was finally activated by the people you despise so much."
905073502285213696,2017-09-05 14:21:53,"@Ce_ne @WhalePanda @ShapeShift_io You guarantee it? Then dont worry, for the fork will be inconsequential."
905072912331243520,2017-09-05 14:19:32,"@Ce_ne @WhalePanda @ShapeShift_io .It is open source code to increase block to 2MB, and by so doing, got miners to‚Ä¶ https://t.co/dds8ts43qt"
905072496633724929,2017-09-05 14:17:53,@Ce_ne @WhalePanda @ShapeShift_io No one likes it? Seems that some like it. https://t.co/ejlMFiOPtE
905072066231132161,2017-09-05 14:16:10,@bergealex4 Then SegWit2x will be DOA and you needn't worry about it.
905071732519731200,2017-09-05 14:14:51,@clear_intention @ToneVays @ShapeShift_io Services that are provided by force aren't services. Only businesses and‚Ä¶ https://t.co/BioyaAXUBw
905071378172329986,2017-09-05 14:13:26,@WhalePanda @ShapeShift_io People are dumping Salt at $10? Where? And aren't you describing all tiered sales?
905071107228680192,2017-09-05 14:12:22,"@WhalePanda @ShapeShift_io What is your metric of ""the community?"" The truth is there are people who support and op‚Ä¶ https://t.co/Zp0BS74l6H"
905070617401057280,2017-09-05 14:10:25,"@Bilthon @jgarzik @real_vijay Actually nobody ""rules."" That's the point."
905070233878118402,2017-09-05 14:08:53,@bergealex4 All I'm doing is following consensus.
905069766569627653,2017-09-05 14:07:02,"@Bilthon @real_vijay Not a failure, for we finally have SegWit."
905069624642887680,2017-09-05 14:06:28,"@hoaxChain @morcosa You seem to keep thinking the minority chain is the ""real one"" so I can understand your perspective."
905068854933569536,2017-09-05 14:03:25,"@CassandraRules You can either respect private property, or you can advocate deportation, but not both."
905068339097042945,2017-09-05 14:01:22,"RT @jgarzik: @morcosa segwit2x succeeds, BTC stays BTC, with a tiny breakaway BCL coin.
segwit2x fails, ""messy divorce"" scenario, far more‚Ä¶"
905067867309129732,2017-09-05 13:59:29,@CassandraRules Or stop advocating coercion against peaceful people.
905067461287936001,2017-09-05 13:57:52,"Tone, congrats on making it into this article! @ToneVays https://t.co/i7lKEjsvSl"
905066222974255104,2017-09-05 13:52:57,@hoaxChain @morcosa It doesnt because doing so would break all wallets.
905066042887569408,2017-09-05 13:52:14,"@smarty_470 How is open source software a ""backroom deal""?"
905065651546472448,2017-09-05 13:50:41,"@Bilthon @jgarzik @real_vijay They don't dictate. But they are stakeholders. They have influence. Just like Core, a‚Ä¶ https://t.co/P4E5YDAw8p"
905064481738260482,2017-09-05 13:46:02,@WhalePanda @ShapeShift_io My overwhelming financial interest is in Bitcoin appreciating. Marginal trace revenue fr‚Ä¶ https://t.co/ZDRTbG6sOX
905062273068044288,2017-09-05 13:37:15,@a_Cat_named_Joe @adam3us @Ferdinando1970 @rjenkins_atl Blockstream has not taken over Bitcoin.
905061718019031040,2017-09-05 13:35:03,"Bitcoin is the ultimate consumer protection. It protect consumers from the manipulation, fraud, and theft of fiat."
905060505793961984,2017-09-05 13:30:14,@morcosa Reneged meaning not carried out by those who signed it. I'm certainly not saying everyone else must go alo‚Ä¶ https://t.co/5V93GZUkrZ
905059762919714817,2017-09-05 13:27:17,@timoncc @ott0disk @real_vijay @SatoshiLite Of course that is true. As is the 1MB block. Nothing achieves unanimous consensus.
905058971710394368,2017-09-05 13:24:08,@tomohelman @real_vijay The one that clearly has both higher market cap and more proof of work (ie greater consensus)
905058508994887681,2017-09-05 13:22:18,@adam3us @Ferdinando1970 @rjenkins_atl Ive written why I personally support it here: https://t.co/mOYEHAYTIY I disa‚Ä¶ https://t.co/1ObD49dCRD
904854337754505216,2017-09-04 23:51:00,"RT @inthepixels: ""The lesson from the internet is anything China bans, invest in"" -@fredwilson #BitLicense / Banking on Bitcoin 31:30 https‚Ä¶"
904849873530380288,2017-09-04 23:33:15,@ToneVays @ShapeShift_io You are defending the biggest scammers on Earth: governments.
904848935239409665,2017-09-04 23:29:32,"@coinstead21 @CharlieShrem @ToneVays I don't want his respect, I want him to stop advocating coercion and violence."
904803070193811456,2017-09-04 20:27:17,@real_vijay Is that the sound of Vijay remembering once again who the real enemy is??? :)
904802729905668096,2017-09-04 20:25:55,"@lopp Whatever that metric and analysis showed in 2009, would have changed in 2017, no?"
904802536342773761,2017-09-04 20:25:09,@real_vijay Well they probably see it differently. Tribes always seem to have their villains and myths. Usually it'‚Ä¶ https://t.co/MvGHEw4UMN
904802002181300224,2017-09-04 20:23:02,@CephasSerhat Hmmm I didn't realize the world's internet infrastructure had reached that boundary yet.
904801756302852096,2017-09-04 20:22:03,"@real_vijay Calling an entire swath of the industry ""knaves"" is a great way to continue the stagnation that we endured for so long."
904801583585574912,2017-09-04 20:21:22,"@gaborgurbacs Good governance needed, agreed. That comes from market trials, failures, and competition. Coercion an‚Ä¶ https://t.co/f3g2zdkx6m"
904801349686124544,2017-09-04 20:20:26,"@pa49 @real_vijay The signers are listed, and they have authority over only themselves, which is what they are acting on."
904801155561037824,2017-09-04 20:19:40,@real_vijay I realize we will never agree about the relative effect of NY Agreement vs UASF.
904800715830288384,2017-09-04 20:17:55,@rjenkins_atl We have SegWit because of the NY Agreement that broke the impasse after 2+ years. Do you realize what‚Ä¶ https://t.co/rKvogRgmEA
904800186358054912,2017-09-04 20:15:49,"If 1MB was the ""scientifically optimal"" block size in 2009, and bandwidth has grown substantially since, then &gt;1MB is today the optimal."
904799670890782720,2017-09-04 20:13:46,"@real_vijay We have SegWit because miners agreed to activate it upon a promise of a 2MB block, and BTC is finally moving forward again."
904798288624345088,2017-09-04 20:08:17,"SegWit2x opponents have started dropping the ""SegWit"" part and just calling it ""2x"". ""NO2X"" is an easier slogan for a hat, perhaps."
904797086742306817,2017-09-04 20:03:30,"@xcgabriel Sooo... crypto projects are the enemy, and the Chinese government is your ally?"
904784349731536896,2017-09-04 19:12:53,@gmaloneyy Not dismissing...  Just skeptical and awaiting evidence.
904783981039673345,2017-09-04 19:11:25,"Tone, stop worshipping the state, it's embarrassing. https://t.co/84kjfCpYrE"
904783722049765378,2017-09-04 19:10:24,"RT @spencernoon: The news of the day is NOT the China ICO ban, it's @Sequoia investing in @BITMAINtech. Omg!"
904783403572015104,2017-09-04 19:09:08,"@lopp .""Writing code and releasing in the marketplace"" without understanding, communicating with, or caring about the market... ?"
904782270451425280,2017-09-04 19:04:37,"RT @awanishr: @cnLedger the existing system will not allow peaceful crypto takeover, the centralised system isn‚Äôt going down without a figh‚Ä¶"
904781784734240768,2017-09-04 19:02:42,This is the logical outcome of State-worship. https://t.co/YSyuTmkuvb
904781507369111552,2017-09-04 19:01:36,RT @TheCryptoShow: Have you heard ‚ÄòErik Voorhees &amp; Colin Cantrell‚Äô by The Crypto Show on #SoundCloud? #np https://t.co/MrJrhXyRQh
904770238788517890,2017-09-04 18:16:49,"RT @SatoshiLite: Now, that I got your attention, here's a serious poll. Are you for or against Segwit2x or leaning towards one side?"
904769917974593544,2017-09-04 18:15:32,@BarrettBrown_ Congratulations on your release from bondage.
904768812490174465,2017-09-04 18:11:09,"@gmaloneyy Yes, it was a coincidence. Coincidences happen every day, all over the place, with everything."
904759203503284224,2017-09-04 17:32:58,"@mrdimkabelov Probably about as much as ""China bans Bitcoin"" affected Bitcoin ;)"
904758960971857920,2017-09-04 17:32:00,"@gmaloneyy @IronLotusPT To be fair, Garrett, you are the one with the extraordinary claim... where's the extraordinary evidence?"
904755455762644992,2017-09-04 17:18:04,"@gmaloneyy Well you win prize for the Least Likely Explanation :)  If they were doing that, even slightly, LTC would be &gt;$10,000."
904749573586825217,2017-09-04 16:54:42,@da_winter Do you think the entire Chinese Communist Party came to this conclusion?
904749163883069440,2017-09-04 16:53:04,"China just loves to ban stuff. Token sales, Google, second children..."
904748777411457024,2017-09-04 16:51:32,Mining Giant Bitmain Reportedly Raising $50 Million Funding Round https://t.co/66WgFOp5L7 via @CoinDesk #bitcoin
904746849809993728,2017-09-04 16:43:53,"Another day, another group of politicians destroying billions of dollars in wealth... ""China bans¬†ICOs"" https://t.co/zcP7XhpifS"
904533985530789888,2017-09-04 02:38:02,#NotTheOnion https://t.co/iCYvkVRMYg
904464131129884672,2017-09-03 22:00:27,"@joerebbeck @ShapeShift_io I'm sorry, Joe. The growth of orders has been unreal. Trying to hire/train/organize as f‚Ä¶ https://t.co/BhM9UPdAJi"
904058430360403968,2017-09-02 19:08:21,RT @OutlierCanada: Netflix Banking on Bitcoin is worth a watch. @ErikVoorhees is on point &amp; @CharlieShrem is electric. Thank you #bitcoin O‚Ä¶
903710764229210112,2017-09-01 20:06:50,"@Truthcoin Yeah, unfortunately false positives are yet another cost of regulation :("
903464081528467456,2017-09-01 03:46:37,RT @brandon_adams: Enjoyed/appreciated @ErikVoorhees‚Äô anti-statist perspective in the ‚ÄúBanking on Bitcoin‚Äù doc on Netflix https://t.co/Eskx‚Ä¶
903463978256424960,2017-09-01 03:46:12,RT @_CaptJakk: @ErikVoorhees @ShapeShift_io is one of the coolest cryptocurrency applications I've used. It brings a beautiful usability to‚Ä¶
903299463300530176,2017-08-31 16:52:29,@NINAYOcom @joefitzgibbon Hey Jack!!!!!
903298914836668416,2017-08-31 16:50:18,"RT @brucefenton: Atlantic Financial &amp; Chainstone Labs joins in banning customers from four jurisdictions: New York, WA State, Iran and Nort‚Ä¶"
903001224118640640,2017-08-30 21:07:23,@AltMinerD Cheers to that
902990209347837952,2017-08-30 20:23:37,Banks: for analog value. Crypto: for digital value. #bitcoin #ethereum #blockchain
902987852186652672,2017-08-30 20:14:15,"@BTCarchitect Hey snarky, Kik is a huge chat app already... 15 million monthly active users. They're a chat app add‚Ä¶ https://t.co/qGIFO8RU3L"
902987364007424000,2017-08-30 20:12:18,"@hardaway I've forwarded to our support team, they will take care of you"
902983175164518401,2017-08-30 19:55:40,Mobile Messenger Kik Raises $50 Million Ahead of $75 Million ICO https://t.co/j7DsOKby64 via @CoinDesk #blockchain @kik
902980614072045568,2017-08-30 19:45:29,"@sk_sweezy @seattletimes @seattlebusiness It was passed in the WA Senate, and licensure is by WA State Dept of Fina‚Ä¶ https://t.co/KWxLTU5fr2"
902960542825955330,2017-08-30 18:25:44,"WA State has joined the ranks of New York. We will not operate in hostile, user-endangering jurisdictions.‚Ä¶ https://t.co/gVR47wCEKt"
902571479556022273,2017-08-29 16:39:44,@tcoss @crichton18 What exactly do you think I was trying to imply?
902545651421949954,2017-08-29 14:57:06,‚ÄúFukuyama‚Äôs Revenge: Can Distributed Computing Help Reclaim Human Liberty?‚Äù by @seven7hwave https://t.co/OL8Uc1LeCO #bitcoin #ethereum
902536784692645888,2017-08-29 14:21:52,Evil capitalists reducing the cost of healthy food!!! Amazon cuts prices at Whole Foods up to 43% on first day https://t.co/Fy9YnK92hh
902342170132094977,2017-08-29 01:28:32,@lgreenmarketing @bitcoinkeepkey Thanks sir!
902316931687911424,2017-08-28 23:48:15,"RT @EnderWiggin1970: @SEC_News Speaking of scamming, there's this altcoin ""Dollar"" some outfit named ""Federal Reserve"" released - premined,‚Ä¶"
902316824536039424,2017-08-28 23:47:49,RT @joebren60: @SEC_News @coindesk What about the QE scam?
902289190003474433,2017-08-28 21:58:01,"@lgreenmarketing @bitcoinkeepkey It will support more coins in the future, and no, you won't need to buy a new device."
902279155630325760,2017-08-28 21:18:08,Bitcoin Cash now retrievable on your KeepKey https://t.co/J3pHFQ50aE
901647171723837440,2017-08-27 03:26:52,SALT is a lending program that makes credit scores unnecessary https://t.co/puHcTZaieG via @AGBizWire #bitcoin #ethereum #blockchain
901512156931174400,2017-08-26 18:30:22,RT @BobMurphyEcon: If only there were a mechanism by which he could give his money to the kids needing eyeglasses... https://t.co/U0MZcINLEn
901222485286309888,2017-08-25 23:19:19,Charlie is a good man and never deserved to be thrown in a cage and have two years of his life stolen from him. https://t.co/gbJpaxTasw
901220767265771520,2017-08-25 23:12:29,BitPay‚Äôs Perspective on Segwit2x https://t.co/TikDl6si8u via @bitpay
900720156556402688,2017-08-24 14:03:14,@TerrenceYang @ooophoenixooo13 @jgarzik Opt-out breaks all wallets
900531929879126016,2017-08-24 01:35:17,@_smithjason @Crypto_Krill @AlenaSatoshi @Xentagz @ShapeShift_io .I've described my support for SegWit2x here (140‚Ä¶ https://t.co/K3CHg6a2nF
900531673925898241,2017-08-24 01:34:16,"@thestringpuller The investors made a bunch of money, what are you talking about? You're welcome to disagree with m‚Ä¶ https://t.co/ZPCxDG10OS"
900506474300018689,2017-08-23 23:54:08,@EdwardKerstein @ShapeShift_io You may discover that KeepKey's will start supporting most of the assets found on ShapeShift.
900506169114079234,2017-08-23 23:52:55,@_smithjason @Crypto_Krill @AlenaSatoshi @Xentagz @ShapeShift_io Why would I pay more than something is worth?
900498772114800640,2017-08-23 23:23:32,‚ÄúBitGo SegWit Launch‚Äù by @murchandamus https://t.co/aKIasuY76p  #HappySegWitDay
900491107200585729,2017-08-23 22:53:04,@Crypto_Krill @AlenaSatoshi @Xentagz @ShapeShift_io Can I buy the shares back? I'll pay you 2x what you paid.
900490835606863873,2017-08-23 22:52:00,KeepKey hardware wallets are in stock :) https://t.co/kp4F3gtpbr
900490634636779520,2017-08-23 22:51:12,RT @ShapeShift_io: üÜï¬†New Coins now on ShapeShift- ZRX-QTUM -  https://t.co/QuGtvVIH8U
900365941095055360,2017-08-23 14:35:43,"Opt-in replay protection added to Btc1 (SegWit2x). https://t.co/o5FnTqCnNA Provides a tool to protect users, and doesn't break wallets."
900193781420617728,2017-08-23 03:11:36,@farscapian @ShapeShift_io Bitcoin is whatever has greatest confluence of economic/user/miner support. If SegWit2x‚Ä¶ https://t.co/E9e70I9edz
900188848424144896,2017-08-23 02:52:00,"Fantastic analysis of digital asset valuation. @cburniske shares my own view, and captured it clearly here. https://t.co/ktO5GiOYIt"
900187293130141696,2017-08-23 02:45:50,RT @ShapeShift_io: We üíô  our partner @exodus_io Give this multi-platform wallet a try:  https://t.co/97orAx883m
900186743936352257,2017-08-23 02:43:39,"RT @KonradSGraf: This day in Bitcoin price history (21 Aug)
2010 $0.07
2011 $11
2012 $10
2013 $108
2014 $521
2015 $234
2016 $579
2017 $4,00‚Ä¶"
900132063763873792,2017-08-22 23:06:22,RT @CoinomiWallet: Reposting this as there seems to be confusion as to how to store the 200 newly introduced tokens #mindblowing #279 #bloc‚Ä¶
900131910847840256,2017-08-22 23:05:45,RT @daM00N_: i will block the sun https://t.co/bvLVZvg1wR
900131459922509824,2017-08-22 23:03:58,"@EdwardKerstein @yollaMekiM @SaltLending Well that's for sure! Stay skeptical, people!"
900129711455559680,2017-08-22 22:57:01,"@EdwardKerstein @yollaMekiM The earlier the investor, the greater the risk. If price of any asset feels incorrect to you, then don't buy it."
900117857492533251,2017-08-22 22:09:55,"For those curious, here is the Bitcoin node software to help make the SegWit2x upgrade a success  https://t.co/MDN25tuSLl"
900107275003609088,2017-08-22 21:27:52,@yollaMekiM What's concerning? People that contribute to projects earlier in their lifecycle tend to get better ret‚Ä¶ https://t.co/UyCsR842pq
900014356770963456,2017-08-22 15:18:38,"@liveyourdreams_ I'm only working on one project: @ShapeShift_io, and I advise @SaltLending"
899821182098128897,2017-08-22 02:31:02,"@kenhess @brucefenton No really, I can. I bought tickets to Dunkirk the other day. Great movie. Best part? No fiat involved."
899707673981067265,2017-08-21 18:59:59,@Laszlo_Szel @ShapeShift_io I responded to your complaint here: https://t.co/Fx1Nhk4h2s
899707546369269760,2017-08-21 18:59:29,@brucefenton @kenhess .Difference between belief in ghosts and belief in Bitcoin: I can demonstrate scientifically‚Ä¶ https://t.co/lDuKHEjq1a
899671480518168581,2017-08-21 16:36:10,@kenhess @brucefenton Just like when you meet someone who believes in ghosts... there is an impulse to guide them b‚Ä¶ https://t.co/a3UKN2XFXL
899635376398057472,2017-08-21 14:12:42,RT @BTCbenny: Interview with @ErikVoorhees of @Shapeshift_io https://t.co/QZWJHyHHoq
899355223579176960,2017-08-20 19:39:29,Funny project to celebrate the #SolarEclipse in proper ICO fashion :) https://t.co/pl0a9Z4lzm
899325716407267328,2017-08-20 17:42:14,RT @decentraland: I just published ‚ÄúMANA Token Launch Recap‚Äù https://t.co/jnlVds04gl
898628208257449990,2017-08-18 19:30:35,Honored to support you guys. Keep up the great work :) https://t.co/FXHGRptJdh
898578223402852352,2017-08-18 16:11:57,"@TenaciousBTC @nitroXplicit @franamati @gavinandresen Blockchains are opt-in. So no, there is no ""force"" happening.‚Ä¶ https://t.co/t2qMXfDyO7"
898577797899210754,2017-08-18 16:10:16,@CryptoHumor @ShapeShift_io @bitcoinkeepkey #ThugLife
898573235188490240,2017-08-18 15:52:08,Blockchain VR Project Decentraland Raises $26m in an hour https://t.co/5uurtpqs3i
898572604092555264,2017-08-18 15:49:38,"""regardless of race, gender, and geographic location, have the right to make decisions with their own finances""  https://t.co/ye3lzRY3eM"
898571963970355200,2017-08-18 15:47:05,"@nitroXplicit @franamati @gavinandresen Nobody is forcing anything. Blockchains are opt-in. When fork happens, you'‚Ä¶ https://t.co/RtSjOU1zpC"
898567824041365504,2017-08-18 15:30:38,RT @scottshapiro: @Prism_Exchange by @ErikVoorhees and @ShapeShift_io is off to an awesome start! Here's a quick review of what they've bui‚Ä¶
898567771289640962,2017-08-18 15:30:25,"@scottshapiro Thanks for the review, Scott! Love the suggestions.  Note: fee is 2.5% + 0.05 ETH per Prism (not 5%)."
898560137270509572,2017-08-18 15:00:05,"@SamouraiWallet @Beautyon_ @Bilthon Contrary to what you imagine, the only strong belief I used to hold, which I no‚Ä¶ https://t.co/YVw1dW5El0"
898558200001069057,2017-08-18 14:52:23,"@Bilthon @Beautyon_ I never said ""miner signaling is everything."" Please address the points I make, not the points I don't."
898557905812598784,2017-08-18 14:51:13,It is indeed a beautiful device. Props to the original team for its design. https://t.co/w0T1fPayPE
898557718457335808,2017-08-18 14:50:29,@SamouraiWallet @Beautyon_ @Bilthon Or perhaps we could just disagree about some things and not vilify each other for it.
898545292705882112,2017-08-18 14:01:06,@Beautyon_ Your continued insults of those who disagree with you isn't changing anyone's mind.
898544776059928579,2017-08-18 13:59:03,"@Beautyon_ ""2X is anti-Bitcoin"" is not a fact. It's an opinion. It's your opinion, and you're welcome to hold it."
898544131277860864,2017-08-18 13:56:29,@Beautyon_ @Bilthon Thanks for taking the time to comment.
898543469748043776,2017-08-18 13:53:51,"@Beautyon_ We disagree on the issue, and that's okay. Everyone has lost the debate at this point, and market forces‚Ä¶ https://t.co/RLnxH3kxYh"
898542824743878657,2017-08-18 13:51:18,@Bilthon @Beautyon_ I've described my thoughts/rationale here:  https://t.co/mOYEHAYTIY
898541567593431040,2017-08-18 13:46:18,"Some people have pm'd me to verify I am involved with @SaltLending Answer: yes, and the project is awesome. Excited to be 1st customer."
898541291243323392,2017-08-18 13:45:12,@RainBitcoins @SaltLending You know it.
898541011198136321,2017-08-18 13:44:05,@Bilthon @franamati @gavinandresen I never claimed to represent you.
898540707874357249,2017-08-18 13:42:53,"@scottbuszard I'm not sure what ""charity based"" means, but cryptocurrency can easily be donated to anyone, anywhere in the world."
898540373101887488,2017-08-18 13:41:33,"@nitroXplicit @franamati @gavinandresen Businesses derive from users. They only exist because they have users, and‚Ä¶ https://t.co/4hXCbKy4RR"
898539875552473088,2017-08-18 13:39:35,@Bilthon @Beautyon_ No not at all. I am not opposed to them. I think they generally do great work and I've remained‚Ä¶ https://t.co/AqyI4syr78
898539276303912960,2017-08-18 13:37:12,"Pleased to announce, upon our acquisition of KeepKey, the devices are back in stock! https://t.co/1kvm8vW1Zy"
898538872044257282,2017-08-18 13:35:35,@Ju5tBitcoin @bradmillscan @BTCarchitect @ShapeShift_io @bitcoinkeepkey They have been silent recently because we w‚Ä¶ https://t.co/Hra9woZz5z
898538463162646528,2017-08-18 13:33:58,@threat008 KeepKey will absolutely support ERC20 tokens. Did you see this on Wednesday? https://t.co/phAHTeUOpT
898537882456961024,2017-08-18 13:31:39,"RT @crypto_voices: Listen to @ErikVoorhees discuss #Bitcoin &amp; adoption, business &amp; banking, gold &amp; uses w/ @fernandoulrich &amp; Matthew: https‚Ä¶"
898369151080603648,2017-08-18 02:21:11,KeepKey blog post regarding recent alleged security vulnerabilities: https://t.co/6N7jzvMwEq  TL;DR KeepKey remains secure and uncompromised
898365314047500288,2017-08-18 02:05:56,"@franamati @gavinandresen Lol let's pretend it's just good ol' Jeff doing it on his own, instead of the reality, in‚Ä¶ https://t.co/M53sJfJ1kx"
898364855488348160,2017-08-18 02:04:07,"@Beautyon_ So the Core dev team is now comprised of pure math and science? That's awesome, I had always thought it was comprised of people."
898327373828902912,2017-08-17 23:35:10,ShapeShift's position in light of the SEC announcement: ShapeShift and Tokens as Securities https://t.co/AL51P2K8yq #bitcoin #ethereum
898325720211963905,2017-08-17 23:28:36,"@TenaciousBTC @gavinandresen When did I ""refuse to listen""?  Also, this wasn't about listening, but about blocking/removal from a project."
898321047111335937,2017-08-17 23:10:02,"RT @alistairmilne: Coinbase continues to add ~33k users per day ... 200,000 in the last 6 days
Total now: 9.4million
#bitcoin #ethereum #li‚Ä¶"
898320348378054656,2017-08-17 23:07:15,"@La__Cuen Great piece, thank you Leigh!"
898320148548919296,2017-08-17 23:06:28,How you get monoculture and groupthink: boot everyone who disagrees with you. Same thing happened to @gavinandresen‚Ä¶ https://t.co/sAZy61qTUk
898309474632347648,2017-08-17 22:24:03,"International Business Times: Swiss Bank Becomes First To Offer Cryptocurrency, Digital Wallets Still Better
 https://t.co/miEyRYolgw"
898296764159016960,2017-08-17 21:33:32,How to Release Equity and Still Hold on to Your Crypto Assets with SALT Lending https://t.co/XdAQtK7bAk #bitcoin #ethereum
898276427237163008,2017-08-17 20:12:44,RT @dangermouse117: I wonder how many of our super hyped cryptocurrency protocols will look like this when we look back in 2037. https://t.‚Ä¶
898276105928323072,2017-08-17 20:11:27,Welcome to Switzerland! Breadwallet secures $7m USD funding and establishes headquarters in Switzerland https://t.co/azLmKHCrc4 #bitcoin
898238112827977728,2017-08-17 17:40:29,The Cryptoverse Video  üîî So THIS Is What‚Äôs Really Been Going On With KeepKey and ShapeShift https://t.co/A7rf2uyb1v #bitcoin #ethereum
898230461536677888,2017-08-17 17:10:05,Bitcoin's Biggest Software Wallet Blockchain Adds Ethereum https://t.co/G7DNSKQvVh via @CoinDesk
898229218303070208,2017-08-17 17:05:08,NY Times: ShapeShift acquires KeepKey in All-Bitcoin deal https://t.co/uzBRTCo4jY #finance
898228812906864640,2017-08-17 17:03:31,.@Blockchain now has native @ShapeShift_io integration in its new #Ethereum wallet https://t.co/HK3kaRWO3S Convert between Bitcoin&lt;&gt;Ether
897949799772594176,2017-08-16 22:34:50,@BlazingBitcoins The purpose of Bitcoin is to have sovereignty over one's money. Loans and debt are legitimate tools of sovereign people.
897948622959935489,2017-08-16 22:30:09,Swiss digital asset exchange buys U.S. wallet maker in all-bitcoin deal https://t.co/ImMXPnIAUO @shapeshift_io @bitcoinkeepkey
897890140579692544,2017-08-16 18:37:46,"RT @MarcHochstein: ""New York is the crypto backwater"" after the BitLicense, @ShapeShift_io's @ErikVoorhees tells @brianeha in this Q&amp;A http‚Ä¶"
897889862853906432,2017-08-16 18:36:39,@bradmillscan @BTCarchitect @ShapeShift_io @bitcoinkeepkey Absolutely. No change to product or brand. Enhancements over time.
897888515517579264,2017-08-16 18:31:18,RT @business: Bitcoin is soaring into space... literally https://t.co/q7r7WQoqRi https://t.co/DBq2ocmlzF
897880060878667776,2017-08-16 17:57:42,Pleased to announce: ShapeShift has acquired KeepKey https://t.co/phAHTeUOpT  #bitcoin #ethereum #blockchain @ShapeShift_io @bitcoinkeepkey
897823369785036800,2017-08-16 14:12:26,David Sacks: Cryptocurrency fulfills the 'original vision' we tried to build at PayPal https://t.co/pt01AlKrdG #bitcoin
897806617038565376,2017-08-16 13:05:52,RT @cryptograffiti: @Melt_Dem FTFY https://t.co/mpxQqgBUCK
897659274410774528,2017-08-16 03:20:23,"@Scrivelicious @investorcryptos @CharlieShrem @Bitcoin It's pretty funny you think Bitcoin is a ponzi, and then you‚Ä¶ https://t.co/iPDXOaljRA"
897521895850954752,2017-08-15 18:14:29,So very excited to see this project come to existence. No longer will people need to liquidate Bitcoin for cash.  https://t.co/i9dPWh9AiK
897105873880850433,2017-08-14 14:41:22,"""Printing money is so neat. I can see why the fed does it""  - @ShapeShift_io employee this morning :) #bitcoin #EndTheFed #finance"
896892401024778240,2017-08-14 00:33:06,"RT @udiWertheimer: $BTC marketcap: $69B USD
$PYPL marketcap: $70B USD

The real #flippening is almost here! https://t.co/fGGCAPh3wJ"
896747973886988288,2017-08-13 14:59:12,"RT @TuurDemeester: Crypto exchange volumes, 24hrs: 
Bittrex $665M
Bithumb $434M
Bitfinex $294M
Poloniex $250M
OkCoin $202M
BTER $179M
Krake‚Ä¶"
896552644671447040,2017-08-13 02:03:02,"RT @maraoz: Basic operational security good practices for anyone dealing with cryptocurrencies:
- Use 2FA on all accounts
- Don't open emai‚Ä¶"
896547398528319492,2017-08-13 01:42:11,"Bitcoin break past $4,000 fiat toilet paper slips https://t.co/leaQS73ohI #finance #forex"
896167383940739072,2017-08-12 00:32:08,This is why bitcoin could be the new gold: Tom Lee https://t.co/j1WlCf13d9
896116415618465792,2017-08-11 21:09:37,Fascinating - alleged new emails between Mike Hearn and Satoshi circa 2009 https://t.co/oC5yUnL0sg #bitcoin
896100970484047872,2017-08-11 20:08:14,"@avsa Which token sale models and projects were successful, and why, will be a fascinating book that remains to be written."
896083528546304001,2017-08-11 18:58:56,Bitfinex is closing service to US customers. Yet another innovative exchange abandoning US regulatory nightmare.  https://t.co/pqfOowKdy6
896006537038053376,2017-08-11 13:53:00,Wow. Filecoin has allegedly raised a quarter billion dollars in its token sale. https://t.co/2Jh7FOed5K
895792213443072001,2017-08-10 23:41:21,@Traderbarn @JaEsf @SrBitcorn @zooko @nirvanadev @LarryBitcoin @viaj3ro @miguelcortes111 @VitalikButerin @McBairdy‚Ä¶ https://t.co/ScrkOpUPaD
895762520350146560,2017-08-10 21:43:21,"RT @SaltLending: #SALTLending platform allows you to keep your #crypto and get your #cash. 

Learn more: https://t.co/mQ9l7xaTJx"
895760405477244928,2017-08-10 21:34:57,@nitroXplicit @FedericoTenga @zooko @JaEsf @nirvanadev @LarryBitcoin @viaj3ro @miguelcortes111 @VitalikButerin‚Ä¶ https://t.co/cYxS7IcLoK
895757853650178048,2017-08-10 21:24:49,@hodlonaut @francispouliot_ @zooko @JaEsf @nirvanadev @LarryBitcoin @viaj3ro @miguelcortes111 @VitalikButerin‚Ä¶ https://t.co/SKjKsNwHID
895757552176185344,2017-08-10 21:23:37,@nitroXplicit @FedericoTenga @zooko @JaEsf @nirvanadev @LarryBitcoin @viaj3ro @miguelcortes111 @VitalikButerin‚Ä¶ https://t.co/U7zazGeasb
895749245575208961,2017-08-10 20:50:37,@mikerelentless @Technom4ge @sovereign_ind Who's that?
895749094131367936,2017-08-10 20:50:00,@francispouliot_ @zooko @JaEsf @nirvanadev @LarryBitcoin @viaj3ro @miguelcortes111 @VitalikButerin @McBairdy‚Ä¶ https://t.co/U9qp5cfIB5
895748813586972672,2017-08-10 20:48:54,@FedericoTenga @zooko @JaEsf @nirvanadev @LarryBitcoin @viaj3ro @miguelcortes111 @VitalikButerin @McBairdy‚Ä¶ https://t.co/0yOF46y3c7
895748294197952512,2017-08-10 20:46:50,@Traderbarn @zooko @JaEsf @nirvanadev @LarryBitcoin @viaj3ro @miguelcortes111 @VitalikButerin @McBairdy @lightcoin‚Ä¶ https://t.co/SeBZp2U5c1
895712660829765632,2017-08-10 18:25:14,@zooko @JaEsf @nirvanadev @LarryBitcoin @viaj3ro @miguelcortes111 @VitalikButerin @McBairdy @lightcoin @Medium‚Ä¶ https://t.co/4s3sD3VlRp
895712493548351490,2017-08-10 18:24:34,@nirvanadev @zooko @LarryBitcoin @viaj3ro @JaEsf @miguelcortes111 @VitalikButerin @McBairdy @lightcoin @Medium‚Ä¶ https://t.co/gluQrnMDfm
895711465088233472,2017-08-10 18:20:29,@nirvanadev @zooko @LarryBitcoin @viaj3ro @JaEsf @miguelcortes111 @VitalikButerin @McBairdy @lightcoin @Medium‚Ä¶ https://t.co/KxvKpZCg6l
895690495103385600,2017-08-10 16:57:09,@sovereign_ind I stand corrected. Looks like ViaBTC did indeed violate their commitment.
895689621908078592,2017-08-10 16:53:41,$100 Million: Coinbase Raises Biggest-Ever Round for Bitcoin Startup https://t.co/fVnUb7WQrE via @CoinDesk
895689304470454273,2017-08-10 16:52:25,RT @barrysilbert: Reminiscing how @chrislarsensf and I almost got laughed offstage at a Goldman summit a few years ago. Times they are a-ch‚Ä¶
895377905701736448,2017-08-09 20:15:02,"Fidelity, the $2.3 trillion investment giant, is testing out a new cryptocurrency service https://t.co/DZzWMflTj4 via @YahooFinance"
895351023950155776,2017-08-09 18:28:13,Fidelity demonstrating leadership as the world moves to digital finance. https://t.co/IDaksK9sJO
895079798740926465,2017-08-09 00:30:28,@Christianani1 Ummm I think I said it will not activate in the current climate. The NY Agreement/SegWit2x/UASF deve‚Ä¶ https://t.co/cNVzDMltCB
895065117930409985,2017-08-08 23:32:08,@JackMallers Nobody is forced into anything with Bitcoin. But 90% of miners and most businesses are moving forward‚Ä¶ https://t.co/9AyPoWRHHN
895064868658659330,2017-08-08 23:31:08,@morcosa You hold that opinion even if 90% of miners move forward with it?  How is that at all similar to BCash?
895047807526195202,2017-08-08 22:23:21,"SegWit has locked in on Bitcoin.  A tremendous day. After two years of infighting, this upgrade is long overdue. Now, on to SegWit2x in Nov."
894979074468139008,2017-08-08 17:50:13,SegWit locks in 7 blocks.  #bitcoin
894978383397900288,2017-08-08 17:47:29,Big in Venezuela: Bitcoin Mining https://t.co/4YWbRpp3zK
894958848930332673,2017-08-08 16:29:51,"@mangicrypto With Bitcoin, we all live in the future."
894956003577405440,2017-08-08 16:18:33,CNBC on Bitcoin today  https://t.co/h5s606Q270
894951762146107392,2017-08-08 16:01:42,@SchusterDEV @Overstock Both Patrick Byrne and the Medici execs. They are serious about pushing this technology forward.
894943715948507136,2017-08-08 15:29:43,@NJSwingsets @Shopify We'd love to! Ask them about it :)
894921089247084544,2017-08-08 13:59:49,@JasperVogeltje You're not helping your case
894921020364144640,2017-08-08 13:59:32,@dzcrypto @Overstock $1.8 billion in revenue last year
894920056815050752,2017-08-08 13:55:43,"Ether, Litecoin and More: Overstock Now Accepts Cryptocurrencies as Payment https://t.co/A7lK39OE2o via @CoinDesk @shapeshift_io"
894912230189219840,2017-08-08 13:24:36,Fortune: ShapeShift and Overstock announce integration partnership. Pay with any digital asset.  https://t.co/AbQH30cEvy #ethereum #litecoin
894676529245900800,2017-08-07 21:48:01,OSTK to HODL: Overstock to Keep 50% of All Bitcoin Payments as Investments https://t.co/e3Zd2lTsPi via @CoinDesk
894645930179182593,2017-08-07 19:46:26,"Forbes: ""Prism feels like a breakthrough on multiple levels"" https://t.co/Xhp3VVNy2X  https://t.co/PgWJNry44n #ethereum #blockchain"
894593887938818048,2017-08-07 16:19:38,Can't Invest In A Crypto Hedge Fund? DIY With ShapeShift's Prism via @forbes https://t.co/Wtv9W9lENM @shapeshift_io #ethereum #blockchain
894343968074248194,2017-08-06 23:46:32,@sarahkoebel Email me at erik at shapeshift dot io
894343726310449152,2017-08-06 23:45:35,The fortune cookie indicator! #Bitcoin https://t.co/xycCZ3zewI
894264494142111744,2017-08-06 18:30:44,"RT @ErikVoorhees: @frequentbeef The lesson: don't trust the news. Wired declared Bitcoin dead when it hit $2 a year ago, now it's $13."
894229354158276608,2017-08-06 16:11:06,Bitcoin vs ther major assets this year https://t.co/B45Tq8aOjx #finance #stocks #tech #blockchain #scoreboard
893971806884741120,2017-08-05 23:07:42,"Bitcoin rockets past $3,000 to new record high https://t.co/fYkwgsWExj #finance"
893831677264314368,2017-08-05 13:50:53,RT @NeerajKA: The incubator behind Dollar Shave Club is doing a $100 million ICO https://t.co/Y5vxenWOQh
893831601385119750,2017-08-05 13:50:35,@michaelbyrne @JohnStossel To obey the law? What about when the law is unethical?
893828531586646016,2017-08-05 13:38:23,RT @JohnStossel: https://t.co/Yk4VGty0lY
893827813186260993,2017-08-05 13:35:31,"RT @drwasho: The @OB1Company mobile app for @openbazaar is looking niiiiicce! Zero fees! Your store, your marketplace! #Bitcoin https://t.c‚Ä¶"
893699575831183361,2017-08-05 05:05:57,"@zoloo1985 Oh it will... the dollar is debased perpetually, so the price of the DOW will rise no matter what."
893699152068067328,2017-08-05 05:04:16,"RT @21: A quick tutorial on using the Shapeshift API with Python to convert between cryptocurrencies 

https://t.co/UgM7ih2KWU"
893697284944257025,2017-08-05 04:56:51,@HeyRhett @lightcoin @taariqlewis ShapeShift is a market for buying and selling digital assets. Some assets I perso‚Ä¶ https://t.co/wvNNFGJJJt
893696933587320833,2017-08-05 04:55:27,"I bet Bitcoin hits 30,000 before the DOW."
893294080012148736,2017-08-04 02:14:39,RT @ShapeShift_io: Did you üëÄ? ShapeShift now support #BitcoinCash! Buy or sell $BCH with dozens of digital assets. No account needed! https‚Ä¶
892801811538624512,2017-08-02 17:38:33,"@adam3us @lopp Yes folks are still doing SegWit2x. Everyone who supported the NY Agreement still supports it, except ViaBTC."
892770682987098116,2017-08-02 15:34:52,@MrHodl @nvk @ShapeShift_io awaiting deposit ability at exchanges....
892770582449618944,2017-08-02 15:34:28,@nvk @ShapeShift_io Why did you think that? I'm a SegWit2x supporter.  ShapeShift will likely list BCH but environment isn't ready yet.
892759609185714176,2017-08-02 14:50:52,"@jonathascarrijo Disagree. That price is dictated by force, permanently. This price is influenced by supply restric‚Ä¶ https://t.co/vAo24Ce3su"
892759308110135296,2017-08-02 14:49:40,@jonathascarrijo It's a self correcting issue. Deposits will be enabled. It's less than 24 hrs still since the asset came into existence.
892755348854947840,2017-08-02 14:33:56,"@bitfinex @ethfinex Congratulations guys, very impressed and proud of you on this announcement a year after the hac‚Ä¶ https://t.co/3N5wq8OOEk"
892752703813672960,2017-08-02 14:23:25,"@JainArgh Bitcoin Cash has nothing to do with NY Agreement. NY Agreement is SegWit2x, which is the path of the curr‚Ä¶ https://t.co/4kpu81KgLq"
892752516915408898,2017-08-02 14:22:41,"@jonathascarrijo You can't send more goods there to be sold (yet), but the goods already there at the market are be‚Ä¶ https://t.co/H40A0n84id"
892750305653178368,2017-08-02 14:13:54,"@jonathascarrijo Bitfinex, Bittrex, and Kraken all support BCH trading right now. Withdraw/deposits are not on yet,‚Ä¶ https://t.co/OO3teOR4bM"
892749290954661888,2017-08-02 14:09:52,@FiatLiberty There are not 32 million bitcoins.  There are Bitcoins (BTC) and Bitcoin Cash (BCH). They are differen‚Ä¶ https://t.co/hsbJwbIFKV
892745848106307584,2017-08-02 13:56:11,Bitcoin &amp; Bitcoin Cash. Ethereum &amp; Ethereum Classic. The market forks and convenes with the interests of users. How money is supposed to be.
892519569461436416,2017-08-01 22:57:02,@adam3us @pete @LarryBitcoin @morcosa To which part of the ecosystem are you referring?  Core and /r/bitcoin?
892519050680516609,2017-08-01 22:54:58,"@pete @morcosa Well... we'll see how the 2MB hardfork in November goes. If that occurs smoothly, Bitcoin will be loaded with rocket fuel,"
892516628411187200,2017-08-01 22:45:21,@pete @morcosa What? That is factually untrue. Miner support peaked around 30-40% and stayed there for months. Then‚Ä¶ https://t.co/Hx2LIbiF8Q
892514444818866176,2017-08-01 22:36:40,"@pete @morcosa And the miners didn't support it. Core refused to also plan a HF, so nothing happened until SegWit2x and the NY Agreement."
892504361485520900,2017-08-01 21:56:36,@morcosa Where does this 9 month number come from? When was that an alternative?
892427831858282496,2017-08-01 16:52:30,"@Lanfra68 There are plenty of BCH transactions happening, but regardless that doesn't stop/prevent mining a block."
892427126883753984,2017-08-01 16:49:42,@khai42 @MrHodl Is that true?  Where is that described?
892425662945935360,2017-08-01 16:43:53,"@TenaciousBTC @ViaBTC Yes, one firm seems to not be honoring it. Everyone else (the vast majority) still is, including Bitmain."
892425300063027200,2017-08-01 16:42:26,@Provoost 20 blocks behind now... odds of that scenario dropping rapidly.
892424959443705856,2017-08-01 16:41:05,"@MrHodl Then it will become obvious they are supporting BCC.  So far, they seem not to be."
892424373734318080,2017-08-01 16:38:45,"@TenaciousBTC @ViaBTC You have interesting logic. ViaBTC has abandoned SegWit2x. Please point out where I ever ""def‚Ä¶ https://t.co/4Is4p0ISez"
892424109958676480,2017-08-01 16:37:42,"If Bitmain was supporting BCC, they would've found a block by now.  This is evidence Bitmain remains committed to SegWit2x (as they stated)."
892385011369771008,2017-08-01 14:02:21,RT @sarahkoebel: Listening to @ErikVoorhees @SaltLending #blockchain #bitcoin #cryptocurrency @ShapeShift_io https://t.co/PeghfGj908
892382789063987200,2017-08-01 13:53:31,"@jptrophardy @VeryVeriViral So you're upset that they ""continue to monitor the situation?""  Who isn't continuing to monitor the situation?"
892379281849843712,2017-08-01 13:39:35,"@Bitcoin4allpple Fork has happened, but BCC doesn't yet have a block."
892379190858702848,2017-08-01 13:39:13,"@jptrophardy @VeryVeriViral To be clear, BCC was supported by Bitmain ONLY if SegWit2x fails. That is very importan‚Ä¶ https://t.co/Fil7gGjXeY"
892376480633704448,2017-08-01 13:28:27,@WidespreadBTC The miners who signed NY Agreement have accepted SegWit along with a 2MB block. This is the compromi‚Ä¶ https://t.co/H3QOhSrqQK
892375545173782528,2017-08-01 13:24:44,"Fork has happened. Now awaiting first block from Bitcoin Cash.  Regardless of opinions, this is very exciting/fascinating day in cryptoland."
892375321625862144,2017-08-01 13:23:50,"@StarlightPerth Doesn't ""solve"" that issue, but will help."
892375170588958721,2017-08-01 13:23:14,"@WidespreadBTC There are lots of miners, they don't all act as one monolithic organization. Only ViaBTC and‚Ä¶ https://t.co/9QXMOR7aKP"
892374848386719748,2017-08-01 13:21:58,"@VeryVeriViral Nope!  BCC is a fork led by a small group that disagrees with SegWit2x, and is thus forking away from it today."
892374604278149124,2017-08-01 13:20:59,@bergealex4 @alansilbert @BITMAINtech It will be clear in the blocks whether Bitmain is supporting BCC. I think the‚Ä¶ https://t.co/QP2EcK80Kt
892373688791646208,2017-08-01 13:17:21,SegWit2x =  SegWit and a 2MB block.  Bitcoin Cash = No SegWit and a w/ a 8MB block. Completely dif initiatives &amp; dif supporters.
892373091191369731,2017-08-01 13:14:59,"@bergealex4 @alansilbert @BITMAINtech So you're promising Bitmain will be mining BCC blocks today then? BitMain, to‚Ä¶ https://t.co/bLk8u4dpyN"
892370174866726912,2017-08-01 13:03:23,Watch out for those claiming today's HF has something to do with the NY Agreement/SegWit2x.  It doesn't.
892369697588486144,2017-08-01 13:01:29,@bergealex4 @alansilbert You mean ViaBTC?  It's disappointing they are defecting from the agreement... Doesn't mean the rest of us are.
892368261869744128,2017-08-01 12:55:47,@bergealex4 @alansilbert What does today's HF have to do with SegWit2x?
892364737643663360,2017-08-01 12:41:47,Pretty good live video cast of Bitcoin fork https://t.co/clAeOQDXUE
892242814460768256,2017-08-01 04:37:18,"RT @ShapeShift_io: UPDATE: Important Bitcoin Hard Fork Info, ShapeShift Timeline: https://t.co/cXXM8xS9is https://t.co/8ZW4ALfct2"
892159673264033793,2017-07-31 23:06:56,@pierre_rochard @morcosa Citation needed.
892159285521547264,2017-07-31 23:05:23,"@morcosa @pierre_rochard Some on-chain scale, imo, leads to a better Bitcoin. As does SegWit. You're welcome to dis‚Ä¶ https://t.co/eO91poeKcy"
892155920385327104,2017-07-31 22:52:01,"@morcosa @pierre_rochard ""They don't care if they sell everyones soul to the man."" &lt;-- I think that's a pretty disi‚Ä¶ https://t.co/BX6X7wZl2e"
892119793997721604,2017-07-31 20:28:28,@pierre_rochard Most bitcoin users don't hang out on twitter/reddit talking about Bitcoin. Want to know what they t‚Ä¶ https://t.co/jNfpHJAB63
892119510358007808,2017-07-31 20:27:20,"@pierre_rochard @CryptoSage ""BTC in this new form"".... wow. The new form here meaning Bitcoin with SegWit active, a‚Ä¶ https://t.co/iZ8H0KNR55"
892113111896907776,2017-07-31 20:01:55,"Note: @ShapeShift_io will be turning off all trading later today, in anticipation of the Bitcoin hardfork. Get your trades done ASAP."
892112828701696000,2017-07-31 20:00:47,@porticodipinto That is the one good reason to hold it.
892102706780934144,2017-07-31 19:20:34,"Good to chat with you too, Manuel, I hope you feel better soon! https://t.co/MNwDcJmW2X"
892098202396106756,2017-07-31 19:02:40,"@kristovatlas Thanks bro, you made my day :)"
892097951052349440,2017-07-31 19:01:40,"RT @SaltLending: Denver friends, join SALT tonight for a meetup with #blockchain entrepreneur @ErikVoorhees. RSVP here: https://t.co/gCFeaY‚Ä¶"
892022845722705925,2017-07-31 14:03:14,@cannamellia @el33th4xor Thanks for the kind words :)
892019888922836993,2017-07-31 13:51:29,@kixunil The reason SegWit is happening is because miners agreed to the SegWit2x compromise. Needs to be upheld.
892018864971685889,2017-07-31 13:47:24,"@el33th4xor Not if they sold their ETC for ETH, which I also did ;)"
891851626872324096,2017-07-31 02:42:52,"Grayscale will liquidate BCC, distribute revenue to trust holders. https://t.co/HPn5EUjzCu #bitcoin"
891850750728351745,2017-07-31 02:39:23,@morcosa Probably the silent majorities on both subs that just want Bitcoin to move forward. And almost every busin‚Ä¶ https://t.co/Jw9Nlsui2e
891839284625293313,2017-07-31 01:53:49,"@Nicknameul If &gt;80% of the miners + industry companies go in a certain direction, it doesn't really matter what Core does."
891736979741605888,2017-07-30 19:07:18,I will be dumping BCC as fast as I can.  SegWit2x has overwhelming support and I stand by my commitment to it. #bitcoin #Aug1
891367434044690432,2017-07-29 18:38:51,Billionaire Marks is quite sure that Bitcoins arent real.  https://t.co/WHEz2rivrN
891362128807968768,2017-07-29 18:17:46,It's Your Money But You Can‚Äôt Have It: EU Proposes Account Freezes To Halt Bank Runs | Zero Hedge https://t.co/kho1dbYdgV
891029581980991492,2017-07-28 20:16:21,@The_Crypto_Guy @Traderbarn @bbands @MadBitcoins @eric_lombrozo @LukeDashjr @pwuille @Excellion @BTCbenny‚Ä¶ https://t.co/7bmHax5Zru
890781083905556482,2017-07-28 03:48:54,ShapeShift: Important Bitcoin Hard Fork Information  https://t.co/MkEygcyjDe #bitcoin @shapeshift_io
890779606223003648,2017-07-28 03:43:02,A New SegWit Lock-In Period Has Started and All Mining Pools Are Signaling https://t.co/Bz31ih4NAK via @CoinDesk #bitcoin
890684603853189120,2017-07-27 21:25:32,CoinBase will not support BCC ‚ÄúUpdate for customers with bitcoin stored on Coinbase‚Äù by David Farmer https://t.co/S3YD2xZBOr
890426629586952193,2017-07-27 04:20:26,RT @coindesk: .@ErikVoorhees takes on technical challenges and how human rights will determine which digital asset wins. #consensus2017 htt‚Ä¶
890348817085861888,2017-07-26 23:11:14,"RT @MultiBitOrg: Sad news. Multibit is no longer supported. 
https://t.co/LBO9oyQ6rP"
890284725427855360,2017-07-26 18:56:33,"@Jamesmarshall02 Incredibly, that was back when wallet.dat files did not have encryption. He could've done it manua‚Ä¶ https://t.co/Ja4xAjH5Jd"
890271055813660672,2017-07-26 18:02:14,"WizSec ""Breaking open the MtGox case, part 1"" https://t.co/qIJQebNbVB  #HolyShit #bitcoin #btce"
889661848613568512,2017-07-25 01:41:28,‚ÄúToken Economy #6‚Äù by @stefanobernardi https://t.co/ocQ6D56vdY
889501712859381761,2017-07-24 15:05:09,Bloomberg: Bitcoin split is nothing to fear for investors https://t.co/2rpk737ARH via @bv
889493098639671296,2017-07-24 14:30:55,RT @SaltLending: Nobody else can offer cash loans for #cryptocurrency collateral. SALT is the future of #investing. https://t.co/KdBbt0FI5C‚Ä¶
889492999142424576,2017-07-24 14:30:31,RT @ShapeShift_io: The @vinarmani  Show on @ActivistPost (7/17/17) w/ guest @ErikVoorhees  of @ShapeShift_io https://t.co/AQ96Unf3ow
889486366446206976,2017-07-24 14:04:10,Bitmain clarifies position on Bitcoin Cash/ABC https://t.co/0Zson92KNf
888220772828815360,2017-07-21 02:15:09,@Anderskargaard @MrHodl @Robtichenor @bennd77 @Beautyon_ Im very curious what you're basing your 5-10% number on.
888189513838845952,2017-07-21 00:10:56,It happened. SegWit. Finally. #bitcoin #tothemoon
888159633952481285,2017-07-20 22:12:12,"https://t.co/Uw8hWZOvrA

Wall Street's 'dean of valuation' says digital currencies are replacing gold"
888159051938279425,2017-07-20 22:09:53,"@Beautyon_ @BitConsultants @MrHodl @Robtichenor @bennd77 Company X has a lot of users, it seeks profit and growth,‚Ä¶ https://t.co/nAGnSY9D8x"
888156594998976512,2017-07-20 22:00:08,@morcosa Deal
888156278173728769,2017-07-20 21:58:52,@morcosa Deal! Can u set calendar reminder?  ::handshake::
888155877261230080,2017-07-20 21:57:16,@BitConsultants @MrHodl @Robtichenor @bennd77 @Beautyon_ Well thats a truism. Perhaps you should ask the companies‚Ä¶ https://t.co/loU2j8BOb3
888155129358110720,2017-07-20 21:54:18,@Robtichenor @Beautyon_ Prob cant answer that sufficiently on twitter
888154940014608384,2017-07-20 21:53:33,@Robtichenor @Beautyon_ I suspect UASF supporters will all confidently declare UASF to be the bigger part. Its unkn‚Ä¶ https://t.co/a4XJMYbW2n
888154490389409792,2017-07-20 21:51:46,@CryptoGambleh @Beautyon_ @Robtichenor Im this close to convincing them Im right.
888154300689530880,2017-07-20 21:51:01,"@MrHodl @Robtichenor @bennd77 @Beautyon_ lol so a HF where 80+% of the hashpower and most major business follow is an ""altcoin."" Got it."
888154019557818368,2017-07-20 21:49:54,@MediumSqueeze @MrHodl @Beautyon_ I stand by that. Fortunately it appears the impasse has been breached. Time now to build and grow again.
888153732298309633,2017-07-20 21:48:45,"@Robtichenor @bennd77 @Beautyon_ ""Ver's big block"" lol Dude you are deluded and suffering from echo chamber. Vast m‚Ä¶ https://t.co/ruLqRF7fPQ"
888153393520271360,2017-07-20 21:47:24,@pierre_rochard @bitcoincoreorg 1.5 years of no movement on SegWit support. Not sure how u can argue with that. It'‚Ä¶ https://t.co/32AHgvFNIZ
888152910420295680,2017-07-20 21:45:29,"@Beautyon_ @Robtichenor It's absurd to say that SegWit2x, and UASF, both didnt change the environment. They did, af‚Ä¶ https://t.co/b6OvMAyfZM"
888152546019127296,2017-07-20 21:44:02,"@Robtichenor @bennd77 @Beautyon_ @PeerPlays Base block size will be 2MB by Jan 1 2018, which proves SegWit2x suceed‚Ä¶ https://t.co/YfnyPM4YPh"
888150972643524608,2017-07-20 21:37:47,@MrHodl @Beautyon_ What narrative were you referring to?
888150767718121473,2017-07-20 21:36:58,"@Robtichenor @bennd77 @Beautyon_ Lets bet on it. How much do u want to wager, and on what terms?"
888150595504177152,2017-07-20 21:36:17,"@MrHodl @Beautyon_ Lol the narrative of SegWit happening? Just sit and watch, I dont need to paint anything."
888150247997820928,2017-07-20 21:34:54,@Robtichenor @Beautyon_ They both changed the environment. They are not mutually exclusive.
888149491068555264,2017-07-20 21:31:54,"@Beautyon_ SegWit2x changed the environment, finally. 95+% miner support. SegWit is happening."
888149006542487552,2017-07-20 21:29:58,"@MrHodl Here we are with 95+% miner support for SegWit2x, wirh SegWit FINALLY about to activate after 1.5 yrs of no‚Ä¶ https://t.co/OOvf525XUp"
888148116032987136,2017-07-20 21:26:26,@MrHodl Thank goodness SegWit2x changed the environment.
888146773553840128,2017-07-20 21:21:06,‚ÄúWhy Tokens are Eating the World‚Äù by @VinnyLingham https://t.co/TRKcTVbTtY #bitcoin #ethereum @ShapeShift_io
888146065106452481,2017-07-20 21:18:17,@danheld @JaEsf @coindesk Exodus and Jaxx are good
888145823401254912,2017-07-20 21:17:19,SegWit alone was unable to get even 50% miner support. SegWit2x (SegWit+ 2mb HF) has over 96% support today. Bitcoin is moving forward.
888144240773025792,2017-07-20 21:11:02,RT @coindesk: LiveBlog Update: 18 Blocks Needed to Lock In BIP 91 https://t.co/xcDdtPku6C https://t.co/KMdmRb18Mb
888045081139314688,2017-07-20 14:37:01,Agree https://t.co/ExQoHMaLqa
888039207565971456,2017-07-20 14:13:40,"@JackMallers Oh, are you talking about Gavin Andressen, Jeff Garzik, and Mike Hearn? Or only the more recent core members?"
887821254153076736,2017-07-19 23:47:36,RT @Prism_Exchange: Prism Lead Architect Raine Revere talks #ether and #prism this evening during Ethereum Denver Meetup https://t.co/fV0fC‚Ä¶
887821144941879299,2017-07-19 23:47:10,RT @ShapeShift_io: NEW! ShapeShift has added #Civic to the exchange! Buy/sell $CVC with dozens of assets. No account needed: https://t.co/H‚Ä¶
887685265598410752,2017-07-19 14:47:14,@CoyoteNakamoto @kyletorpey @TuurDemeester @theonevortex @JihanWu @BITMAINtech @lopp @deadalnix @officialmcafee‚Ä¶ https://t.co/6aQ83YVTYa
887682939882004488,2017-07-19 14:37:59,Very helpful flowchart describing the scenarios for Bitcoin over the next few weeks. https://t.co/OwKOiizy2p #SegWit2x #UASF
887528855191379973,2017-07-19 04:25:43,RT @jimmysong: I just published ‚ÄúUASF/Segwit2x Scenarios and Timelines‚Äù https://t.co/5jO9SVkyjr
887526938973274112,2017-07-19 04:18:06,"@ematiu Not to gain Core's support, but to gain miner's support. It suceeded."
887364025994137600,2017-07-18 17:30:44,"RT @dwaine_van: BW Pool signalling BIP91 brings us to 75.8% hashrate support
#Segwit #Segwit2x #BIP91 #UASF #Bitcoin https://t.co/wBl1kbcISg"
887300320870645760,2017-07-18 13:17:36,RT @coindesk: LiveBlog update: Over Half of the Mining Hashrate is Now Signaling for Scaling Proposal Segwit2x https://t.co/xcDdtPku6C http‚Ä¶
887286492313333761,2017-07-18 12:22:39,RT @www_bw_com: BW has begun running Segwit2x.
887069772831215616,2017-07-17 22:01:29,@Christianani1 It has been a political issue for 2 years. SegWit2x is a political solution to a political problem.‚Ä¶ https://t.co/hJ41SdJwlG
887051278714535937,2017-07-17 20:48:00,@BTCBanksy Whatever story you want to tell yourself is fine
887035720153653248,2017-07-17 19:46:10,"One of best things about SegWit2x: lets all sides claim victory in the Bitcoin scaling debate. And if BTC moves forward, all are victorious"
887035262307401728,2017-07-17 19:44:21,"RT @vinarmani: Don't miss our LIVE interview of @ErikVoorhees, CEO of @ShapeShift_io - today at 10am Pacific Time!

Watch @ https://t.co/SS‚Ä¶"
886923160842629120,2017-07-17 12:18:54,"RT @BITMAINtech: All our #bitcoin mining pools will start running the new #Segwit2x software today
#Antpool #BTCCOM #ConnectBTC #NYA"
886459693199233024,2017-07-16 05:37:15,"@kenzoria @SaltLending Yeah, Im Board Director and seed investor. Love the concept and the team."
886269819540123652,2017-07-15 17:02:45,@LarryBitcoin @CharlieShrem @SatoshiLite ...and it's better to have 5 individual's nodes (3 of whom work for 1 co)?‚Ä¶ https://t.co/0HwOHEzIwd
885895381472686080,2017-07-14 16:14:52,"@SatoshiLite @brianchoffman @BTC4USD @ShapeShift_io I used to be a maximalist. I stand by a few of those points, bu‚Ä¶ https://t.co/LzXbU482kU"
885868278735884289,2017-07-14 14:27:10,The laws of Australia will trump the laws of mathematics: Turnbull https://t.co/NKNxO2MliQ via @ZDNet &amp; @dobes  bwahahahahaha
885565906579017732,2017-07-13 18:25:39,"RT @NeerajKA: 'Bitcoin Sign Guy' Nets Almost $15,000 After Fed Chair Appearance Goes Viral https://t.co/BauDglAlo2"
885541425349349381,2017-07-13 16:48:23,Net Neutrality: Triumph of the Ruling Class - Jeffrey Tucker - Liberty.me https://t.co/H64fMp2MaS
885499537783173124,2017-07-13 14:01:56,Everyone in the crypto industry needs to read this article. Great overview of upcoming dates of SegWit/2x/HF/UASF https://t.co/xRs2hZAdl2
885355312181649409,2017-07-13 04:28:50,"Crypto Boom: 15 New Hedge Funds Want In On 84,000% Returns via @forbes https://t.co/rTPIoKbjON"
885342524621156352,2017-07-13 03:38:01,https://t.co/7N76l8FIeY
885341643355934721,2017-07-13 03:34:31,@brianchoffman Means you're probably doing something right.
885338525008318464,2017-07-13 03:22:07,"RT @CharlieShrem: Vitalik, I agree with you on this. https://t.co/1lgg1zhUiH"
885269999820132353,2017-07-12 22:49:50,Bitcoin address of the guy who did it... send him some tips!  https://t.co/wcKcWevW2z https://t.co/IxlbhF08pX
885196874902384645,2017-07-12 17:59:15,Switzerland's legendary banking system just gave bitcoin a vote of confidence https://t.co/He6hm4eJ2K
885194738114211842,2017-07-12 17:50:46,This might be my favorite thing of all time https://t.co/AqsR1hELoJ
885154036344909824,2017-07-12 15:09:02,"UK fintech start-up Revolut raises $66 million, adds bitcoin https://t.co/J3PBvnpwFN"
884243123467042817,2017-07-10 02:49:23,Reason #42613 why crypto will take over finance https://t.co/cHzYanAOAp
882975352523546624,2017-07-06 14:51:43,"@mikejcasey @aantonop @_drgo @CNN @paulvigna @rogerkver I suppose we disagree, then. I understand ""quotes get selec‚Ä¶ https://t.co/7Jq5RfkJRb"
882973999839531008,2017-07-06 14:46:21,@mikeinspace @ARKblockchain Next two months are different: https://t.co/xRs2hZAdl2
882966150967169025,2017-07-06 14:15:09,"I'm feeling good. Bitcoin has a drama-filled 2 months ahead of it, but is going to come out the other side stronger than ever."
882965937309310981,2017-07-06 14:14:18,@Yoboots1 @crainbf @coindesk Profits without ethics are not legitimate.
882965755377180672,2017-07-06 14:13:35,"@mikejcasey @aantonop @_drgo @CNN @paulvigna @rogerkver Thanks for the kind words @mikejcasey, you're a good man in‚Ä¶ https://t.co/6OuUx6d62t"
882964594062446592,2017-07-06 14:08:58,RT @epicenterbtc: We talked to @ErikVoorhees about @ShapeShift_io and Prism the world's first portfolio market platform https://t.co/UTAMsF‚Ä¶
882341134135042048,2017-07-04 20:51:34,Great writeup of the timeline of Bitcoin scaling events. This is the summer that Bitcoin moves forward. https://t.co/xRs2hZiBWs @AaronvanW
882326681502928896,2017-07-04 19:54:08,RT @SaltLending: SALT lets those with #blockchain assets get cash loans and maintain ownership of their holdings. Learn more @ https://t.co‚Ä¶
882326132137148417,2017-07-04 19:51:57,RT @Snowden: It was once impossible to imagine countries without Kings. A time will come when they look back and say the same of Presidents.
882326042613960704,2017-07-04 19:51:36,"RT @crainbf: Weird anti-ICO bias by @coindesk. They'll report a $1.5m VC raise, but ignoe $100m+ ICO raises"
882325841241186304,2017-07-04 19:50:48,'Nail in the Coffin': The Day US Regulators Stifled Bitcoin Startups https://t.co/dc6q1GQsm7 via @CoinDesk #IndependenceDay #Liberty #USSA
882318830311268352,2017-07-04 19:22:56,@ToneVays @kyletorpey @viaj3ro @Daniel_Plante @SGBarbour @Robtichenor @SpockBrains Well they are doing something ri‚Ä¶ https://t.co/CNu0bioOTu
882318521400741889,2017-07-04 19:21:42,"@Excellion We disagree over the usefulness of a 2MB base block size. That, and SegWit, imho, will help bridge BTC s‚Ä¶ https://t.co/GUXHOeBcYk"
882316933714018305,2017-07-04 19:15:24,"RT @ShapeShift_io: NEW ADDITIONS! ShapeShift has added $EOS, $SNT, $NMR, and $EDG to the exchange! https://t.co/HUooOTA2Ik https://t.co/RD8‚Ä¶"
882316591358242816,2017-07-04 19:14:02,@kyletorpey @viaj3ro @ToneVays @Daniel_Plante @SGBarbour @Robtichenor @SpockBrains They have more wallets and users‚Ä¶ https://t.co/fewfDlEbjI
882314213615652864,2017-07-04 19:04:35,Epicenter #190 Podcast w/ Erik Voorhees: Prism - The World's First Non-Custodial Portfolio Market Platform https://t.co/f56X8hmm0f #ethereum
882288201158856704,2017-07-04 17:21:13,"@ToneVays @brian_trollz @OptimistLib @Robtichenor @Daniel_Plante @SGBarbour @SpockBrains Um, yeah, that's a true st‚Ä¶ https://t.co/xx3GkrNORF"
882287625813585920,2017-07-04 17:18:56,Tokens make every day a liquidity event.
882276358491172864,2017-07-04 16:34:10,"EOS, Status, Edgeless, and Numeraire all added to @ShapeShift_io yesterday @EOS_io @ethstatus @edgelessproject @numerai #bitcoin #ethereum"
882269770854404098,2017-07-04 16:07:59,@Beautyon_ 100kb for each wheel-block: 1MB BTC
882269539676958721,2017-07-04 16:07:04,&lt;3 @ShapeShift_io https://t.co/z9zlLJ7Mzv
882259806085689344,2017-07-04 15:28:24,"@SpockBrains @czr5014 @ToneVays Dismissing people who disagree with you as ""paid trolls"" is what's retard, actually."
882259615609757696,2017-07-04 15:27:38,"@OptimistLib @ToneVays @Robtichenor @Daniel_Plante @SGBarbour @SpockBrains ""Every contentious change is reckless?""‚Ä¶ https://t.co/Da1b611z4N"
882259457195085824,2017-07-04 15:27:00,@OptimistLib @ToneVays @Robtichenor @Daniel_Plante @SGBarbour @SpockBrains I'm not a custodian of funds.
882257507523194880,2017-07-04 15:19:16,"@OptimistLib @ToneVays @Robtichenor @Daniel_Plante @SGBarbour @SpockBrains I agree, and I think UASF is kinda reckl‚Ä¶ https://t.co/ryy1mONmrV"
882256682134507521,2017-07-04 15:15:59,@nitroXplicit @ToneVays @OptimistLib @Robtichenor @Daniel_Plante @SGBarbour @SpockBrains Response deserves more tha‚Ä¶ https://t.co/PMthhmbTFd
882256470385078272,2017-07-04 15:15:08,@ToneVays @OptimistLib @Robtichenor @Daniel_Plante @SGBarbour @SpockBrains You too. But it's called Independence Da‚Ä¶ https://t.co/xuWhJZp0Vw
882256073104781312,2017-07-04 15:13:34,"@brian_trollz @ToneVays @OptimistLib @Robtichenor @Daniel_Plante @SGBarbour @SpockBrains I could say it's only ""con‚Ä¶ https://t.co/jwFS9NVIBu"
882255739217223680,2017-07-04 15:12:14,"@ToneVays @AseeriCo @adam3us @eric_lombrozo @BJTortorich @CharlieShrem @francispouliot_ @BITMAINtech What is an ""economic node""?"
882255548149846016,2017-07-04 15:11:28,@Robtichenor @OptimistLib @ToneVays @Daniel_Plante @SGBarbour @SpockBrains Because 2-8MB blocks will give BTC a few‚Ä¶ https://t.co/eAD3Zvm9g9
882255286827876353,2017-07-04 15:10:26,"@Robtichenor @OptimistLib @ToneVays @Daniel_Plante @SGBarbour @SpockBrains @ShapeShift_io No, that's why we're not‚Ä¶ https://t.co/6eLtJfppex"
882255110553948160,2017-07-04 15:09:44,@ToneVays @OptimistLib @Robtichenor @Daniel_Plante @SGBarbour @SpockBrains No Core developers will ever touch Bitco‚Ä¶ https://t.co/iGTvoAsaSe
882254464555642882,2017-07-04 15:07:10,‚ÄúUnderstanding Segwit [and SegWit2x] Block Size‚Äù by @jimmysong https://t.co/19VkqCLlso #bitcoin
882254110900326400,2017-07-04 15:05:46,"@OptimistLib @Robtichenor @ToneVays @Daniel_Plante @SGBarbour @SpockBrains Also, this is a great piece on blocksize‚Ä¶ https://t.co/71CfySY98F"
882251959914377216,2017-07-04 14:57:13,@OptimistLib @Robtichenor @ToneVays @Daniel_Plante @SGBarbour @SpockBrains Consider that bandwidth has increased at‚Ä¶ https://t.co/IThmtc8rb7
882251585350402048,2017-07-04 14:55:44,@Robtichenor @SGBarbour @ToneVays @PedeClaudo @Daniel_Plante @SpockBrains And that's the ultimate check on pool ope‚Ä¶ https://t.co/WjfrFfJofa
882251318366261248,2017-07-04 14:54:40,@brian_trollz @ToneVays @AseeriCo @adam3us @eric_lombrozo @BJTortorich @CharlieShrem @francispouliot_ @BITMAINtech‚Ä¶ https://t.co/SoVZW9yqHI
882250841356476420,2017-07-04 14:52:46,@OptimistLib @Robtichenor @ToneVays @Daniel_Plante @SGBarbour @SpockBrains I agree 200MB would be drastic and dange‚Ä¶ https://t.co/gETxg88XUL
882250585751379969,2017-07-04 14:51:45,@SGBarbour @ToneVays @PedeClaudo @Daniel_Plante @Robtichenor @SpockBrains Ummm it represents all the miners and the‚Ä¶ https://t.co/rGKvrIHz74
882250333522718720,2017-07-04 14:50:45,"@ToneVays @AseeriCo @adam3us @eric_lombrozo @BJTortorich @CharlieShrem @francispouliot_ @BITMAINtech ""it becomes th‚Ä¶ https://t.co/qtVUchKqLp"
882249702519042049,2017-07-04 14:48:15,"@ToneVays @PedeClaudo @Daniel_Plante @SGBarbour @Robtichenor @SpockBrains So absurd, Tone. UASF ""safe"" when 85% of miners don't support it?"
882249355880783874,2017-07-04 14:46:52,@kyletorpey @ToneVays @Daniel_Plante @SGBarbour @Robtichenor @SpockBrains Nobody is only one or the other... but I‚Ä¶ https://t.co/WN1c2kSZyt
882248600293715971,2017-07-04 14:43:52,@ToneVays @AseeriCo @adam3us @eric_lombrozo @BJTortorich @CharlieShrem @francispouliot_ @BITMAINtech I understand w‚Ä¶ https://t.co/ZzP9WUOHZr
882241195715563520,2017-07-04 14:14:26,@Robtichenor @ToneVays @Daniel_Plante @SGBarbour @SpockBrains I'm always happy to listen to their comments and advi‚Ä¶ https://t.co/2RYkSYPNKj
882238951477702656,2017-07-04 14:05:31,@Excellion Such nonsense. The scaling debate is about scaling and governance. Changing words around and assuming ba‚Ä¶ https://t.co/ZObt95fQWA
882237607698079747,2017-07-04 14:00:11,@ToneVays @Daniel_Plante @SGBarbour @Robtichenor @SpockBrains We deal with ~2% of all the world's bitcoin transacti‚Ä¶ https://t.co/IH9LugSxig
882236379870121984,2017-07-04 13:55:18,@maraoz The dumpening!
882232909687664642,2017-07-04 13:41:31,"With Bitcoin, every day is #IndependenceDay"
882017565068988416,2017-07-03 23:25:49,@BankToTheFuture @dAnconiaMining @ToneVays @RoadStress @notgrubles @BJTortorich @CharlieShrem @francispouliot_‚Ä¶ https://t.co/9U5of5aDAz
882017391827451904,2017-07-03 23:25:07,"@kixunil Yes, absolutely."
882016994878476289,2017-07-03 23:23:33,"@ToneVays @Robtichenor @SpockBrains That's not why I hate politicians. And, I was responding to your hypothetical q‚Ä¶ https://t.co/5DOBTXD0eZ"
881981144497086466,2017-07-03 21:01:05,@TenaciousBTC @dAnconiaMining @hq83bnn9 @ToneVays @RoadStress @notgrubles @BJTortorich @CharlieShrem‚Ä¶ https://t.co/SXJZKqF2zF
881979991902257152,2017-07-03 20:56:31,@AudriusRingaila @LukeDashjr @ToneVays 90% of users are on https://t.co/345C5DfUMW and CoinBase and I have a feelin‚Ä¶ https://t.co/zoyLn0U00U
881979679523184642,2017-07-03 20:55:16,@kixunil Changed after I tweeted to 50k people.
881979544395272192,2017-07-03 20:54:44,@TenaciousBTC @francispouliot_ @ToneVays @BITMAINtech I don't think it needs such thing. Please don't be disingenuo‚Ä¶ https://t.co/7tTG9Fi5zB
881979035542315008,2017-07-03 20:52:43,@MediumSqueeze @Beautyon_ @adam3us @eric_lombrozo @BJTortorich @CharlieShrem @francispouliot_ @ToneVays‚Ä¶ https://t.co/g6WcQBsWkX
881932333036826624,2017-07-03 17:47:08,"@adam3us @eric_lombrozo @BJTortorich @CharlieShrem @francispouliot_ @ToneVays @BITMAINtech ""Doesn't care about user‚Ä¶ https://t.co/ufNRiGPfmB"
881927923799924739,2017-07-03 17:29:37,"@PDukemajian @drewcbarnard @MrHodl @notgrubles @Xentagz Hehehe okay, so the heads of the biggest Bitcoin companies‚Ä¶ https://t.co/H5FcPHkPUx"
881926803849347074,2017-07-03 17:25:10,"@francispouliot_ Nobody runs it yet, the beta was just released a couple days ago. It's time for testing."
881926673125560320,2017-07-03 17:24:38,@PaulHughes7 @ToneVays @Zonacats1 @CharlieShrem @francispouliot_ @BITMAINtech So Bitcoin Core is not open source?
881926527184752642,2017-07-03 17:24:04,@francispouliot_ We will likely turn off service of Bitcoin around Aug 1. Not going to risk user funds while the drama plays out.
881926104768032769,2017-07-03 17:22:23,@theinstagibbs @CharlieShrem @francispouliot_ @ToneVays @BITMAINtech Check your facts. Mike Belshe (CEO of BitGo) i‚Ä¶ https://t.co/06O0JJda7s
881925798139219969,2017-07-03 17:21:10,@francispouliot_ Sounds incredibly reckless and dangerous to users.
881925588751175681,2017-07-03 17:20:20,"@francispouliot_ ""it's a gamble with a lot on the line"" yes it is! As is UASF. As is status quo."
881918545361334272,2017-07-03 16:52:21,@notgrubles @ssoeborg @drewcbarnard @MrHodl @Xentagz Are you talking about UASF?
881918301185724416,2017-07-03 16:51:22,"@notgrubles @ShapeShift_io I think you mean, ""alleged investor"" making empty rhetorical threat on twitter. I offere‚Ä¶ https://t.co/qaUQZjxzFD"
881918073145610240,2017-07-03 16:50:28,"@ytrius @DJ_Erock23 UASF isn't an ""attack."" Let's stop using that language. UASF is a voluntary proposal to the community, as is SegWit2x."
881917826604421120,2017-07-03 16:49:29,@LarryBitcoin @CharlieShrem @francispouliot_ @ToneVays @BITMAINtech @GreenAddress SegWit is not in the spirit of Bi‚Ä¶ https://t.co/o6DwLMLizI
881917549004435456,2017-07-03 16:48:23,@DJ_Erock23 @ytrius I've been treated pretty crappy by maximalists since I left that tribe. And not towing the /r/b‚Ä¶ https://t.co/ilsJVE3npM
881917282439581696,2017-07-03 16:47:20,@ssoeborg @drewcbarnard @MrHodl @notgrubles @Xentagz So 80% of Bitcoin users don't care about Bitcoin's properties.‚Ä¶ https://t.co/lPunZzswcJ
881916876426817537,2017-07-03 16:45:43,@dAnconiaMining @ToneVays @RoadStress @notgrubles @BJTortorich @CharlieShrem @francispouliot_ @BITMAINtech‚Ä¶ https://t.co/NuRHF3wYuB
881915848197386240,2017-07-03 16:41:38,"@WiserWealth @francispouliot_ @ToneVays @BITMAINtech LOL SegWit2x is ""strong handed"" but UASF isn't eh? Both are vo‚Ä¶ https://t.co/jaNinTZ0La"
881915053804576769,2017-07-03 16:38:28,@dAnconiaMining @ToneVays @RoadStress @notgrubles @BJTortorich @CharlieShrem @francispouliot_ @BITMAINtech‚Ä¶ https://t.co/Q9V5gAC2Gu
881914519626362880,2017-07-03 16:36:21,@drewcbarnard @MrHodl @notgrubles @Xentagz Do you realize that Coinbase + Blockchain together support the vast majo‚Ä¶ https://t.co/tdAMQRRS8g
881914106940456964,2017-07-03 16:34:42,@ToneVays @Zonacats1 @CharlieShrem @francispouliot_ @BITMAINtech I guess I'm too stupid to understand. I thought op‚Ä¶ https://t.co/pAfZTkOWAZ
881913466927415297,2017-07-03 16:32:10,Pretty telling that this question gets downvoted to oblivion on /r/bitcoin https://t.co/pRWKofW0zA  Why will nobody answer it?
881912347094339584,2017-07-03 16:27:43,@SpockBrains @ToneVays @Zonacats1 @CharlieShrem @francispouliot_ @BITMAINtech UASF is taking risk also. And status‚Ä¶ https://t.co/uNON3dnKHe
881911729281740800,2017-07-03 16:25:16,"@ToneVays @Zonacats1 @CharlieShrem @francispouliot_ @BITMAINtech Wait, you claimed it wasn't open source, then I sh‚Ä¶ https://t.co/xS8NwX8aIg"
881911364511567878,2017-07-03 16:23:49,"@Robtichenor @cane_jean @SpockBrains @ToneVays If you're a peer, go review the code https://t.co/MDN25tdhTN"
881911264536088576,2017-07-03 16:23:25,@ToneVays @RoadStress @notgrubles @BJTortorich @CharlieShrem @francispouliot_ @BITMAINtech We are not yet running i‚Ä¶ https://t.co/yD76s23nRv
881910806572654592,2017-07-03 16:21:36,"@eric_lombrozo @BJTortorich @CharlieShrem @francispouliot_ @ToneVays @BITMAINtech What is ""blatant bullshit?"" Speak‚Ä¶ https://t.co/QItev5iiwc"
881910291356942337,2017-07-03 16:19:33,@notgrubles @eric_lombrozo @BJTortorich @CharlieShrem @francispouliot_ @ToneVays @BITMAINtech Please explain what i‚Ä¶ https://t.co/UZOvV6WWDg
881910003061452800,2017-07-03 16:18:24,@ToneVays @Zonacats1 @CharlieShrem @francispouliot_ @BITMAINtech Is this not the code? https://t.co/MDN25tdhTN
881907501347860482,2017-07-03 16:08:28,"@notgrubles @BJTortorich @CharlieShrem @francispouliot_ @ToneVays @BITMAINtech I said ""almost every"" and I said ""pa‚Ä¶ https://t.co/WPIlWQAj9V"
881906872575512576,2017-07-03 16:05:58,@eric_lombrozo @BJTortorich @CharlieShrem @francispouliot_ @ToneVays @BITMAINtech The code is open source and you'r‚Ä¶ https://t.co/QlK0wLaary
881906533315092480,2017-07-03 16:04:37,@SamouraiWallet @CharlieShrem @francispouliot_ @ToneVays @BITMAINtech How many tickets have asked for that?
881906141994913792,2017-07-03 16:03:03,@Zonacats1 @CharlieShrem @francispouliot_ @ToneVays @BITMAINtech Kinda hard for open source code to be a wolf in sheep's clothing
881897086572212224,2017-07-03 15:27:04,"@BJTortorich @CharlieShrem @francispouliot_ @ToneVays @BITMAINtech It must be a pretty large ""back room"" if almost‚Ä¶ https://t.co/yGw1YF7Ob0"
881896782879436800,2017-07-03 15:25:52,@Robtichenor @ToneVays @SpockBrains I neither believe nor disbelieve them. I don't know them well enough. Do you?
881896554973605888,2017-07-03 15:24:58,"@ToneVays @MrHodl @SpockBrains If a segwit tx is not valid on the legacy chain, then how does that work?"
881896342527848449,2017-07-03 15:24:07,"@javierasis @ToneVays @francispouliot_ @BITMAINtech Ehhh you can't be in yet, the chain hasn't split. Unless you're‚Ä¶ https://t.co/v7JjGtGxqo"
881895833804955649,2017-07-03 15:22:06,"@ToneVays @Robtichenor @SpockBrains What I sign, I do."
881895291426922496,2017-07-03 15:19:56,"@francispouliot_ @ToneVays @BITMAINtech ShapeShift supports SegWit2x, as does almost every major company and miner‚Ä¶ https://t.co/E82p6aIKDU"
881894515367436288,2017-07-03 15:16:51,"@javierasis @ToneVays @francispouliot_ @BITMAINtech Well over 80% of it is currently supporting SegWit2x, so would‚Ä¶ https://t.co/xe7OdPsqy4"
881894392793112577,2017-07-03 15:16:22,@TenaciousBTC @MediumSqueeze @ToneVays @WorldCryptoNet I've been following and participating in the discussion for‚Ä¶ https://t.co/A5f09Y3hDN
881894079046594562,2017-07-03 15:15:07,"@MrHodl @nitroXplicit @notgrubles @Xentagz As a former maximalist, I hope one day you emerge from the tribalism."
881893903707906053,2017-07-03 15:14:26,"@ToneVays @MrHodl @SpockBrains R u sure? If there is a HF then accepting BIP148 txs would be just as risky for us, no?"
881893598748434433,2017-07-03 15:13:13,"@ToneVays @MrHodl @SpockBrains And if it doesn't, there will be a contentious HF.  And I've seen no indication that‚Ä¶ https://t.co/puJpeM1flR"
881893321517539328,2017-07-03 15:12:07,"@francispouliot_ @ToneVays @BITMAINtech Okay fine... but that is huge contentious HF risk, that's all I'm saying. T‚Ä¶ https://t.co/sOk7yZKjTq"
881893062498279428,2017-07-03 15:11:05,@prayankgahlot @ToneVays @francispouliot_ @BITMAINtech Roughly to this extent https://t.co/1eVAYHuTqZ unless you ha‚Ä¶ https://t.co/O7Uq3i0wCs
881892783602245633,2017-07-03 15:09:59,@nitroXplicit @notgrubles @Xentagz I agree with that... but it's got to make bitcoin maximalists uncomfortable.
881892623677616128,2017-07-03 15:09:20,"@Robtichenor @SpockBrains @ToneVays We will absolutely run SegWit2x, as will most businesses and miners who have ex‚Ä¶ https://t.co/YA8WXIiXS5"
881892332265668609,2017-07-03 15:08:11,"@TenaciousBTC @MediumSqueeze @ToneVays @WorldCryptoNet Point me to someone with ""complete knowledge."" I have never‚Ä¶ https://t.co/7hHTEQwEgO"
881892126207995907,2017-07-03 15:07:22,"@MrHodl @SpockBrains @ToneVays We will likely turn off bitcoin until the matter is settled, and we know that could mean hours/days/weeks."
881891897626816515,2017-07-03 15:06:27,"@ToneVays @francispouliot_ @BITMAINtech So you believe risk of HF is very low on Aug 1, even though majority of has‚Ä¶ https://t.co/pKqIw0S7x7"
881891465919705090,2017-07-03 15:04:44,@nitroXplicit @notgrubles @Xentagz Roger's biggest incentive has always been to do what he thinks best for Bitcoin.‚Ä¶ https://t.co/e3BuOIdVlz
881890937311559680,2017-07-03 15:02:38,"@hodlonaut @notgrubles @Xentagz I agree.... and the point is that ""has SegWit"" will not necessarily determine the w‚Ä¶ https://t.co/iOOVk3XPZi"
881890162103463938,2017-07-03 14:59:34,@nitroXplicit @notgrubles @Xentagz He partially has. As have others who are sick of Bitcoin's stagnation. BTC is le‚Ä¶ https://t.co/9yH3TvRuno
881889455724015622,2017-07-03 14:56:45,"@ToneVays @WorldCryptoNet thanks for the link, will check them out"
881889373834366978,2017-07-03 14:56:26,@SpockBrains @ToneVays I will enjoy bigger blocks. I will also enjoy SegWit. Both should've happened over a year ago.
881888718285676545,2017-07-03 14:53:49,"@francispouliot_ @ToneVays Okay, can you explain? This is what I'm trying to understand."
881888570612604929,2017-07-03 14:53:14,@SpockBrains @ToneVays Delusional is thinking UASF won't cause a chain split when 80%+ of the mining power is opposed to it.
881888255431647234,2017-07-03 14:51:59,"@AnselLindner @notgrubles @Xentagz It's not a false dichotomy, you're using that term incorrectly. This is in fact‚Ä¶ https://t.co/RQhmwCzf41"
881887982604750848,2017-07-03 14:50:54,"@francispouliot_ @ToneVays Is this true or false: If UASF/Bip148 doesn't have majority hashpower support, there is‚Ä¶ https://t.co/solGWSqYqy"
881887690437873664,2017-07-03 14:49:44,"@herrpuppekanin @BTC4USD @Xentagz SegWit2x is ""not safe,"" but advocating a UASF with no majority miner support, whi‚Ä¶ https://t.co/L0tNcg7jIx"
881887239629877248,2017-07-03 14:47:57,"@notgrubles @Xentagz If ""has SegWit"" is the criteria of the ""cryptocurrency with most utility"" as you stated, then‚Ä¶ https://t.co/3t2mCqHcKy"
881886824175685632,2017-07-03 14:46:18,"@SpockBrains @ToneVays Bro... without the majority of miner support, there will be a chain split. There is no indic‚Ä¶ https://t.co/jo5xcyyJox"
881886551315279872,2017-07-03 14:45:13,"@hodlonaut @notgrubles @Xentagz If hashpower doesn't matter, only SegWit as a feature, then Litecoin already wins that competition."
881886317449273344,2017-07-03 14:44:17,@notgrubles @Xentagz So Litecoin?
881886160259338244,2017-07-03 14:43:39,"@wirelesswebsol @Xentagz Unavoidable if miners still support it by then, I believe."
881885683866095618,2017-07-03 14:41:46,@notgrubles @Xentagz You didn't answer the question.
881885539057717248,2017-07-03 14:41:11,@Zonacats1 @ToneVays Have you seen this response to those slides?  https://t.co/xLe4BjY0pi
881884832644595713,2017-07-03 14:38:23,"@SpockBrains @ToneVays But you define ""if successful"" how? I've seen no indication that more than 10-20% of hashpow‚Ä¶ https://t.co/Q4AOFScDuD"
881884467761213440,2017-07-03 14:36:56,"@notgrubles @Xentagz In a case of two chains, one w/ SegWit and 5% hashpower, and the other without SegWit but 95%‚Ä¶ https://t.co/S6q2HDipBY"
881884121815015425,2017-07-03 14:35:33,@wirelesswebsol @Xentagz I think/hope that it implies the HF later... that's half the point (the other half being t‚Ä¶ https://t.co/ranenklziq
881883649561554944,2017-07-03 14:33:41,"@notgrubles @Xentagz Ummmm if the network forks Aug 1 and the chain with 5% has SegWit and the 95% chain doesn't, then does that count?"
881882635303362564,2017-07-03 14:29:39,@MrHodl @ToneVays Followed
881882089251110914,2017-07-03 14:27:29,"@SpockBrains @ToneVays So contentious HF for UASF is fine, but contentious HF for block increase is evil/dangerous/‚Ä¶ https://t.co/tcJxnna8y3"
881881690934792192,2017-07-03 14:25:54,@ToneVays Is there a blog post or discussion where this is detailed/discussed? And is there any indication over 25% of miners support UASF?
881881331055169538,2017-07-03 14:24:28,"@MrHodl @ToneVays Instead of cliche internet insults, please provide useful information, as I'm trying to learn."
881881185194004481,2017-07-03 14:23:53,@Robtichenor @ToneVays Do you mean UASF won't happen? Or it will happen and will have &gt;50% miner support?
881878770298310657,2017-07-03 14:14:18,"@ToneVays And if less than 50% support BIP148 on Aug 1, then won't there be a contentious HF?"
881878527473221636,2017-07-03 14:13:20,South Korea is Preparing to Regulate and Legalize Bitcoin https://t.co/UkX26ZNRnY via @CryptoCoinsNews
881877138948882432,2017-07-03 14:07:49,Serious question: is there a list or indication of which miners will support the UASF/BIP148 chain come Aug 1?
881876867271274496,2017-07-03 14:06:44,"@MrHodl @notgrubles @Xentagz That's great. But, which miners are supporting BIP148? (serious question)"
881876652149682176,2017-07-03 14:05:53,"@brian_trollz I appreciate that you drafted a longform response, but it comes across as emotional and ranty. We rem‚Ä¶ https://t.co/nAZ4iVj6Kk"
881875588457385984,2017-07-03 14:01:39,"@Galois_Capital All information in a marketplace is asymmetric to some degree, for some period of time."
881874798539935745,2017-07-03 13:58:31,"@BTC4USD @Xentagz I do support SegWit, no strings attached.  I support anything that makes SegWit happen and is reasonably safe."
881874552187473921,2017-07-03 13:57:32,"@notgrubles @Xentagz You say ""technically"" but what you mean is ""in my opinion."""
881724731698937856,2017-07-03 04:02:12,"RT @NeerajKA: Probably not good that I first read this as ‚Äúthe ICO"" https://t.co/Q0bCYvPEvv"
881688225731022852,2017-07-03 01:37:08,RT @AntiMedia: Federal Reserve Says Not to Worry About a Financial Crisis. That Means You Should https://t.co/cBcsz5snh0
881681820122787840,2017-07-03 01:11:41,"RT @brucefenton: Bitcoin started as Band of Brothers, turned into Avengers: Civil War &amp; has now become Harry Potter 7 
(the one w/ that big‚Ä¶"
881657196861284352,2017-07-02 23:33:50,"@Xentagz I will be running SegWit2x, and I do not want to fire anyone. It is the best chance of activating SegWit. #MoveBitcoinForward"
881538117257363456,2017-07-02 15:40:39,Delaware House Passes Historic Blockchain Regulation https://t.co/dq7BIOTP2A
881227231539888128,2017-07-01 19:05:19,"@JorgeStolfi @McBairdy @davidjnixon So fixed issuance cap is a ""fatal flaw?"" Stated differently, money is only legi‚Ä¶ https://t.co/vB9KurYxXJ"
881219405589340160,2017-07-01 18:34:13,The one and only @cryptograffiti sent me a beautiful gift! Ye Olde Crypto Candle Company. #BreakoutGreen‚Ä¶ https://t.co/Q2wB8GakQk
880878877169524736,2017-06-30 20:01:04,@dominicdileo Ultra libertarian ideals means nothing more than being peaceful. Let people live in peace. Humans des‚Ä¶ https://t.co/PLTTKkv1wS
880561472098582529,2017-06-29 22:59:49,There is no debt ceiling... let's stop pretending. Debt will rise exponentially until there is a bond market crash. https://t.co/7P4aCx9YAY
880560540170559489,2017-06-29 22:56:07,"@BTCarchitect @ShapeShift_io Disagree. It is a potential solution, and it's the most likely solution I've seen to m‚Ä¶ https://t.co/a1Ezf0Vtlz"
880552164208197632,2017-06-29 22:22:50,Detailed model of how ShapeShift works:   https://t.co/REAPg9Ykp6  @shapeshift_io
880550288964308993,2017-06-29 22:15:23,A Note to Our Customers from Erik Voorhees @shapeshift_io https://t.co/T6j5kuQ865 #bitcoin #ethereum
880447540298207232,2017-06-29 15:27:06,Pantera Capital to Raise $100 Million in Investment for ICO Hedge Fund https://t.co/O0gXbN9l06 via @CoinDesk
880442527677120512,2017-06-29 15:07:11,Daimler AG Issues ‚Ç¨100 Million Corporate Bond in Blockchain Trial https://t.co/Sa9cmgY9Ka via @CoinDesk
880442192778723329,2017-06-29 15:05:51,@dominicdileo Coercion is when you use men with guns (ie government) to enforce social policies you think are good.‚Ä¶ https://t.co/u5wC9VLLD1
880218039542628352,2017-06-29 00:15:08,Burger King Russia Franchise Plans to Accept Bitcoin Payments This Summer https://t.co/iM993x7k3z via @BTCTN
880217249335828480,2017-06-29 00:12:00,"@dominicdileo Its fine to disagree. Unfortunately you seek to coerce me, while I would never seek to coerce you. I‚Ä¶ https://t.co/lzqFrKlB0x"
880211982158311425,2017-06-28 23:51:04,"@dominicdileo So the government needs to tell us what standard of living should be, and then should steal from some‚Ä¶ https://t.co/FwdYv99QX9"
880211776775888897,2017-06-28 23:50:15,"@dominicdileo Consumers are not productive, by definition. Producers are productive. Consumers are consumptive."
880198129135517697,2017-06-28 22:56:01,"@dominicdileo Satisfy what standard of living, exactly? ""Living wage"" proponents never define that."
880181295526969352,2017-06-28 21:49:08,"@dominicdileo What does it mean to have ""income inequality fixed""? People are not equal in productivity, how/why wo‚Ä¶ https://t.co/YkU44W6RXp"
880171812633686016,2017-06-28 21:11:27,"@dominicdileo Hmm... no, politicians and economically-illiterate voters will bring that about as Coercive Government Program #528,215."
879726160602697729,2017-06-27 15:40:35,"""CNN Caught Cold"" In Undercover Sting - Producer Admits Russia Fake News Story Pushed For Ratings | Zero Hedge https://t.co/nhFzoXDgL6"
879520530457559043,2017-06-27 02:03:29,The Selloff - good blog post from Fred Wilson re: crypto markets and volatility @avc https://t.co/uNmdLnnmIR #bitcoin #ethereum
879350938892480517,2017-06-26 14:49:36,"@haydentiff Hey Tiffany - thanks for the write up, main issue is related to miner fee and the relatively small orde‚Ä¶ https://t.co/vuidzDJYpY"
879035573230501889,2017-06-25 17:56:27,"@JorgeStolfi @McBairdy In Venezuela, buying food at market price is an illegal payment."
878977544174940160,2017-06-25 14:05:51,RT @ARKblockchain: Sent out a few copies of my upcoming üìñ on #cryptoassets 4 technical review! Naturally @twobitidiot was on the list üòä htt‚Ä¶
878817893378650112,2017-06-25 03:31:28,RT @AntiMedia: If you honestly believe 'they hate us for our freedom' you are refusing to accept reality.. https://t.co/n0yqqWHYDN
878655434080628737,2017-06-24 16:45:54,"@JorgeStolfi @McBairdy ""only useful for illegal payments"".... You realize that is factually false, right?"
878650952940740611,2017-06-24 16:28:06,RT @www_bw_com: BW would like to reiterate its commitment to the New York Agreement.
878515332608143360,2017-06-24 07:29:11,"@JorgeStolfi @McBairdy Meanwhile, it remains the best way to move money between any two people anywhere on Earth."
878355569203003392,2017-06-23 20:54:21,"@LefterisJP Proper definition of both: ""The radical notion that people who havent hurt anyone should be left alone"""
878354777381392384,2017-06-23 20:51:12,@GreyWyvern bwahaha sick burn bro :)
878354063481606144,2017-06-23 20:48:22,"Properly defined, capitalism and pacifism are synonyms."
878353719028404224,2017-06-23 20:47:00,@avsa @leashless Socialism involves coercion/force. So it's more like a mix of just raw capitalism and more raw capitalism.
878351790147866624,2017-06-23 20:39:20,"Are there any economists who have admitted they were wrong about Bitcoin, now that it has demomstrated substantial staying power and growth?"
878351158737162241,2017-06-23 20:36:49,@humbrie I have yet to see widespread riots in any free market
878350945431601152,2017-06-23 20:35:59,"@pedrotdg Im assuming a market economy, not a coercive economy."
878349858943496192,2017-06-23 20:31:39,@viaj3ro Try to ask in a more biased way
878288679982247940,2017-06-23 16:28:33,"Remember folks... the true minimum wage is always, and everywhere, $0 per hour.  https://t.co/MhouNI48fv"
878139564728008704,2017-06-23 06:36:01,"@cryptowanderer @ShapeShift_io @Jaxx_Support It is far too long, I know. Team is working through tickets as fast as‚Ä¶ https://t.co/RGIv6T7dQW"
878132990617845761,2017-06-23 06:09:54,@cryptowanderer @ShapeShift_io @Jaxx_Support Customer support backlog is longer than two days right now. Please be‚Ä¶ https://t.co/hwP6xLxOBS
877828250831134720,2017-06-22 09:58:58,RT @msantoriESQ: BREAKING:  Blockchain Raised $40M in New Funding. Could not be more proud of the @blockchain team! https://t.co/lAnqpcCV7h
877827097762332672,2017-06-22 09:54:24,@UncleDiaz @NickSzabo4 lol i hope so
877826078970191872,2017-06-22 09:50:21,YES!!!!!  AWESOME JOB @niccary and @OneMorePeter at @blockchain #bitcoin https://t.co/KzpJDGSOsL
877824710628712449,2017-06-22 09:44:54,@NickSzabo4 lol what the hell? what did they expect your reaction to be?
877823854063767552,2017-06-22 09:41:30,"At @NOAHConference in Berlin, and the host is asking panel guests, ""do you own Bitcoin?"" Last answer from Udemy CEO: ""No, Im stupid"" #NOAH17"
877808120952750080,2017-06-22 08:38:59,"RT @davalb: Panel discussion with @ErikVoorhees, @OneMorePeter and Nicolas Brand yesterday touched a lot of intersting topics: https://t.co‚Ä¶"
877211927687987200,2017-06-20 17:09:56,SegWit2x Is a Go: 80% of Bitcoin Network Signals for Upgrade https://t.co/HiQpBwwVxR via @CryptoCoinsNews
877211535457767424,2017-06-20 17:08:22,"@DJDanJonesy @ShapeShift_io I am sorry for the delay, please be patient, the support team is working through ticket‚Ä¶ https://t.co/dN3e2u9A5Q"
877189137727619072,2017-06-20 15:39:22,@mrauchs @twobitidiot @Ferdinando1970 Users always have ultimate power regardless... for they can leave the platform and use something else.
877125401801236480,2017-06-20 11:26:06,"RT @barrysilbert: Ding, ding, ding! With BTCC and BATPOOL now signaling for SegWit2x, the 80% network hash rate threshold has been hit
http‚Ä¶"
877111787686178816,2017-06-20 10:32:00,My thoughts on SegWit2x  https://t.co/mOYEHAHiRq #bitcoin
877105815328616448,2017-06-20 10:08:16,"@MrTokken It's an important variable and can't be changed recklessly, but 6 months is enough time when most of indu‚Ä¶ https://t.co/dAc2CYe13d"
877105624399654912,2017-06-20 10:07:31,"@SteinLudvigsen That's hilarious, because the /r/bitcoin trolls are quite sure it is a trap by the evil Chinese mining overlords."
877100204251635712,2017-06-20 09:45:59,"@MrTokken I don't consider them to be trolls, no. I suspect they actually do know how to change a variable in the c‚Ä¶ https://t.co/l8uViLEsim"
877095220130848768,2017-06-20 09:26:10,"@city19akro After 2+ years of debate and discussion, 6 months post SegWit is plenty of time IMO. Clock is already t‚Ä¶ https://t.co/xt3DuounzP"
877094589030682624,2017-06-20 09:23:40,"@deez241 I don't understand what your comment means. What's not ""fair""?"
877092770460172288,2017-06-20 09:16:26,‚ÄúSegwit2x: What you need to know‚Äù by @jimmysong https://t.co/xcleB73955
877091434687598592,2017-06-20 09:11:08,"Given that many angry trolls from both /r/bitcoin and /r/btc are passionately opposed to SegWit2x, I'm more bullish on it than ever #bitcoin"
876928534383439872,2017-06-19 22:23:49,I encourage everyone who cares about moving Bitcoin forward to support all efforts toward SegWit2x.  https://t.co/vcnSSRIGoP
876886073904955394,2017-06-19 19:35:06,Let's Talk Bitcoin! #334 with Erik Voorhees - Solving for Liquidity and Counterparty Risk with ShapeShift and Prism https://t.co/vP2QEglSZy
876425333712486404,2017-06-18 13:04:17,"RT @alistairmilne: Bitfury is already signalling support for the New York Agreement (""NYA"") in its blocks ... which means support &gt;95%?
#bi‚Ä¶"
876131259784863744,2017-06-17 17:35:44,"@MattdeCourcelle @bradmillscan @ShapeShift_io Upon 100% gain, the Prism is closed and you get 2x your funds back. N‚Ä¶ https://t.co/ZCEq6Ipl4u"
876130546107260928,2017-06-17 17:32:54,"The Ether Review #67 ‚Äî Erik Voorhees, ShapeShift and Prism  https://t.co/9iQQ9AJh5y"
875911454200930305,2017-06-17 03:02:18,@AlyseKilleen @barrysilbert Doesn't say SegWit2x is immature anywhere. Did you read it? It is an endorsement of bot‚Ä¶ https://t.co/AHfXs2xW00
875900525929279488,2017-06-17 02:18:53,RT @barrysilbert: F2Pool reiterates support for SegWit2x. 8% of bitcoin network hash rate https://t.co/oWjHtlPWc3
875900288984633345,2017-06-17 02:17:56,"RT @dawnmnewton: Bezos: ""Alexa, buy me something from Whole Foods.""
Alexa: ""Buying Whole Foods.""
Bezos: ""Shit.""
#Amazon #AmazonWholeFoods #‚Ä¶"
875732255393673217,2017-06-16 15:10:14,Most amazing meme for Ethereum ever made hahahaha https://t.co/aFCRgO0DLm #HODL
875725528820482049,2017-06-16 14:43:30,@gonbop @ShapeShift_io I appreciate the patience... I know it sucks to wait. We have 6 full time support staff and hiring more.
875724802593628160,2017-06-16 14:40:37,@gonbop @ShapeShift_io Hey - I apologize for the delay. There has been a backlog of customer tickets since late las‚Ä¶ https://t.co/CkgPlGDgwk
875486191843368960,2017-06-15 22:52:28,"Here's @ShapeShift_io's growth thus far in USD equiv volume...

2014: 1028% Growth
2015: 1079% Growth
2016: 491% Growth 
2017: 1322% Growth"
875392911088766978,2017-06-15 16:41:48,RT @cryptotraveler: Great Response by @ErikVoorhees when asked about a possible HF in Bitcoin. https://t.co/VXtGBx7K1M
875381749248909313,2017-06-15 15:57:27,"Link to my AMA, happening right now: https://t.co/tX6lrvfobX #ethereum #blockchain https://t.co/0t3MgSJQiq"
875360382122065921,2017-06-15 14:32:33,Cheers to that https://t.co/1ghSCBP6O8
875353537039007744,2017-06-15 14:05:21,Bloodbath today!  https://t.co/EBzjWyuUbu #bitcoin #ethereum
875206108469534724,2017-06-15 04:19:31,@d_s_phillips We have ways of hedging
875205911320461312,2017-06-15 04:18:44,You Won't Believe This Stupid New Law Against Cash And Bitcoin | Zero Hedge https://t.co/mRcSUA5OAU
875126887634407424,2017-06-14 23:04:43,RT @cryptotraveler: @ErikVoorhees Just used @exodus_io and @ShapeShift_io to exchange small amount of BTC to LTC. Amazing product and servi‚Ä¶
875054104141152256,2017-06-14 18:15:30,"Whether SegWit2x, UASF, UAHF, MASF, or  whatever else, Im looking forward to Bitcoin moving forward. Everyone lost the blocksize debate."
875038901198614529,2017-06-14 17:15:06,RT @Scarlet_Snow: Just wanted to brag on @ShapeShift_io. Even when I had problems their support was incredible. Highly recommend. #cryptoex‚Ä¶
874988701146906626,2017-06-14 13:55:37,Bitmain statement on contingency for BIP148 UASF  https://t.co/mHmLPJMESu #bitcoin
874695512787648512,2017-06-13 18:30:35,Which Wallets are Compatible with Prism? https://t.co/8Igzbu6cZM via @prism_exchange #ethereum
874617405640765440,2017-06-13 13:20:13,"American Banker: ""How I missed the point of bitcoin"" (it's about censorship resistance) https://t.co/OCBpkFGWfw"
874411724958564352,2017-06-12 23:42:55,@Th3Acist ... did you even read the article? Or just see a name you don't like and decided to be a dick on the internet?
874411328173166592,2017-06-12 23:41:21,RT @lwsnbaker: Really interesting to hear from @ErikVoorhees about everything @ShapeShift_io is building including @Prism_Exchange. https:/‚Ä¶
874411103673102336,2017-06-12 23:40:27,@realjeffq @ShapeShift_io We've posted alert on the homepage of delays for BTC input transactions. Your tx will cle‚Ä¶ https://t.co/AxIItuPLPK
874098329252225024,2017-06-12 02:57:36,"Right on the Money: Bitcoin hits $3,000, or 1000x my entry point six years ago https://t.co/vmyYMuu1cT via @Falkvinge #nailedit #scoreboard"
874094716022870017,2017-06-12 02:43:14,RT @ChainDynamics: Show 66 is ready https://t.co/gTNe55kfYw .  We learn about PRISM from @ShapeShift_io CEO @ErikVoorhees and talk about th‚Ä¶
873982540297777152,2017-06-11 19:17:30,"@Say_Resense ... that means the global forex market, the largest market in the world, is only 1000x the size of the‚Ä¶ https://t.co/ZxFzVkbsZs"
873954493204975617,2017-06-11 17:26:03,This is why @ShapeShift_io doesn't collect personal information. It is unethical to endanger users unnecessarily.  https://t.co/sS1tnXmzmF
873945730838401024,2017-06-11 16:51:14,RT @durov: @yashalevine And that was just 1 week. It would be naive to think you can run an independent/secure cryptoapp based in the US.
873945705039179780,2017-06-11 16:51:07,RT @durov: @yashalevine During our team's 1-week visit to the US last year we had two attempts to bribe our devs by US agencies + pressure‚Ä¶
873935992180355073,2017-06-11 16:12:32,RT @Fullbeerbottle: #Bitcoin just hit US$3000 on Bitfinex. $btc #cryptocurrency $crypto
873908574317051905,2017-06-11 14:23:35,RT @thebtcpodcast: The #Bitcoin Podcast #132: @ShapeShift_io &amp; @prism_exchange CEO @ErikVoorhees! Worlds 1st Trustless Asset Portfolio: htt‚Ä¶
873674899390435330,2017-06-10 22:55:02,"While fiat markets are closed (how quaint), crypto markets are on fire... over $4.5 billion traded past 24 hrs https://t.co/2JZAgbHdE1 #ETH"
873673798696022016,2017-06-10 22:50:40,RT @ShapeShift_io: UPDATE: Bitcoin input transactions are processing slowly today due to high one-way volume of BTC to ETH. Txs are clearin‚Ä¶
873617657836318721,2017-06-10 19:07:35,RT @helloluis: @SatoshiLite @coinbase This old cartoon of mine was meant for Satoshi but could be about @SatoshiLite too #bitcoin #litecoin‚Ä¶
873535197140189184,2017-06-10 13:39:55,"This is not phrased well. ShapeShift is seeing 50% of its own orders as alt to alt, not necessarily 50% of all mark‚Ä¶ https://t.co/ppEDkePIlZ"
873533745961291776,2017-06-10 13:34:09,"So proud of NH and the Free State Project :) ""New Hampshire Governor Signs Bitcoin MSB Exemption into Law"" https://t.co/SbDDVmcB7e #liberty"
873384385390800896,2017-06-10 03:40:38,RT @wences: Argentina's leading financial newspaper now showing the Bitcoin price on their back cover along key financial indicators https:‚Ä¶
873195332112461824,2017-06-09 15:09:25,"@frictionleX @Ryan0Walker And I'd love to see 100,000 in the developing world over the next 5 years. That goal is h‚Ä¶ https://t.co/o3imSwZlNB"
873195105049554945,2017-06-09 15:08:30,"@MrHodl @Ryan0Walker It is popular, and growing fast, and I would like that to continue. Fee growth rate is quickly‚Ä¶ https://t.co/iGHDL6g554"
873194865198280704,2017-06-09 15:07:33,"@jaygoodz @BJTortorich @MrHodl @lopp Ethereum will have scaling issues, absolutely. It will not have the ""same"" sca‚Ä¶ https://t.co/AHscamkiNo"
873194669420793856,2017-06-09 15:06:47,@JonathanVaage @lopp Great answer
873194593852022785,2017-06-09 15:06:29,"@bitcoin_sm I'm not arguing for 5 billion to be on chain. I'm arguing that higher fees leads to less adoption, and‚Ä¶ https://t.co/I8u5LafaKs"
873194372933849089,2017-06-09 15:05:36,"@danwestcrypto I agree with that. Onchain is not the global longterm scaling solution. It is, however, very importa‚Ä¶ https://t.co/Mdnuk7D1Kz"
873194152686755842,2017-06-09 15:04:43,@Ryan0Walker Not at all. On chain should NOT be the permanent/longterm solution to scaling. But it is a contributin‚Ä¶ https://t.co/dJUtEuJWxO
873193996901810178,2017-06-09 15:04:06,@MrHodl @Ryan0Walker BTC has risen 4x in the past year. Fees have risen 10x and growing much faster than price.
873193692659687424,2017-06-09 15:02:54,"@lopp That's true. Block increases shouldn't be the way 5B use BTC. But increase to 2-8MB soon, will help growth co‚Ä¶ https://t.co/JWRk05qFSc"
873193440791724032,2017-06-09 15:01:54,@danwestcrypto @Tom_Horvath 1) Cost of protocol stagnation is also very high + existential risk. 2) a UASF also thr‚Ä¶ https://t.co/1nDD3Pc3k0
873191916023709697,2017-06-09 14:55:50,@danwestcrypto @Tom_Horvath Cost of changing 1MB to 2MB is relatively low. Cost of building road lanes is relativel‚Ä¶ https://t.co/D6Q5CUMdSR
873191174416281601,2017-06-09 14:52:53,"@danwestcrypto @Tom_Horvath First, public transit probably isn't the best example of efficiency gains. Second, 2MB‚Ä¶ https://t.co/sCyfEynxou"
873190919327154176,2017-06-09 14:51:52,"@lopp Not temporarily: at any given level of users, 2MB blocks will yield far lower fees forever. Growth will incre‚Ä¶ https://t.co/xvhHYwisLd"
873190511322034176,2017-06-09 14:50:15,"@city19akro I'm certainly not proposing it be done instead of other solutions. Rather, it should be done alongside‚Ä¶ https://t.co/jOMsrpRT8T"
873190073851891713,2017-06-09 14:48:31,"@Ryan0Walker With $3 fees, BTC will not be used by most humans. This reduces potential node count. Low fees -&gt; high‚Ä¶ https://t.co/CM1hTYQwEb"
873189716170084354,2017-06-09 14:47:06,"@danwestcrypto With due respect, the only chance of prevailing against that ""system"" is if the world is using Bitco‚Ä¶ https://t.co/LZVHF28AnW"
873189277722697728,2017-06-09 14:45:21,"@lopp Fees will not be the same on a 1MB Bitcoin vs a 2MB Bitcoin. Fees on the later, with same user growth, will be far less than 50%."
873183577806077953,2017-06-09 14:22:42,Any argument that Bitcoin can't have larger blocks because decline in node count is refuted when fees price out the 5 billion poorest people
872831275694002180,2017-06-08 15:02:47,@eric_lombrozo @BenedictSlaney The Bitcoin industry's friends are whomever helps push forward reasonable scaling up‚Ä¶ https://t.co/3dTDKvFKuY
872830587127685125,2017-06-08 15:00:03,The State-Worship is strong with this one... The consequences of allowing a cryptocurrency takeover https://t.co/m55mXj2sbO #bitcoin
872534916269056001,2017-06-07 19:25:09,FTFY Wall Street https://t.co/SFxVuQnKqa  #bitcoin #scoreboard
872534492828897281,2017-06-07 19:23:28,"@Nate_Brulport Bubbles are inevitable in all markets. If the fundamental value/utility is there, however, then the speculation is warranted."
872534097528336384,2017-06-07 19:21:54,"@AnonOnAMoose I love them! Privacy in finance, like privacy in communication, is a human right (it's the same right‚Ä¶ https://t.co/sgDdBTkO3b"
872531262413692929,2017-06-07 19:10:38,"Fiat: lose 2% per year, in a consistent manner. Crypto: gain 50% per year, in a volatile manner. #bitcoin"
872530501843779584,2017-06-07 19:07:37,"RT @nvk: This is monumental. 5yr chart, ""how to buy bitcoin"" vs ""how to buy gold"" 

The Times They Are A Changin'. https://t.co/465oLopLFT"
872474547584475136,2017-06-07 15:25:16,RT @coinranking: We did a full API integration with @ShapeShift_io ! Have a look: https://t.co/6YK4q5n87j @ErikVoorhees https://t.co/dSxobW‚Ä¶
872474440344449029,2017-06-07 15:24:51,"@coinranking @ShapeShift_io Beautiful integration!!! Suggestion: upon clicking a coin, go immediately to next step‚Ä¶ https://t.co/AlxlGTaNxb"
872468429189644291,2017-06-07 15:00:57,"@dafacto @coindesk I think it means: no new taxes on blockchain stuff, not that income isn't taxed."
872459723227975680,2017-06-07 14:26:22,Thanks for being a customer! Makes our day to hear comments like this :) https://t.co/DsVFzAcHwm
872456248926646273,2017-06-07 14:12:33,Bitcoin . . . Future Global Currency? https://t.co/R2TgC3NlTB via @HuffPostBlog
872455341325385728,2017-06-07 14:08:57,Nevada Becomes First US State to Ban Blockchain Taxes https://t.co/QIWG04r45x via @CoinDesk
872455182004752389,2017-06-07 14:08:19,@MrHodl And somehow that's okay?
872452228744957952,2017-06-07 13:56:35,Does anyone have data or an indication of how much hashpower is supportive of UASF? #bitcoin
872302830509584384,2017-06-07 04:02:56,RT @ARKblockchain: Reminder: the near zero correlation of #bitcoin &amp; #cryptoassets to the broader financial markets makes them hedges again‚Ä¶
872300571155456000,2017-06-07 03:53:57,"Glad to help, thanks for being a customer. https://t.co/M3qswpoMID"
872232202892914689,2017-06-06 23:22:17,How Prisms Live on the Ethereum Network: High-level guide by Raine Revere https://t.co/ERbuK7Vp9R via @prism_exchange
872096531058479104,2017-06-06 14:23:10,"With bitcoin surge, cryptocurrencies top $100 billion in market capitalization https://t.co/KxevPUpTas #finance #fiatsucks #blockchain"
872095347685904384,2017-06-06 14:18:28,"From reddit: ""Facebook's On This Day page surfaced this conversation I had in 2011..."" https://t.co/5eGv9qz7yd #bitcoin #perspective"
872087364100911105,2017-06-06 13:46:44,What a beautiful day... the market value of all crypto assets has surpassed $100 billion for the first time https://t.co/2JZAgbHdE1 #bitcoin
871912861618118656,2017-06-06 02:13:20,RT @cryptotraveler: Great talk.... I had a Similar Adventure into Libertarianism and CryptoCurrency. https://t.co/CVyWTD9DzO
871903762771783680,2017-06-06 01:37:10,@GabeCoin @Coinapult Bon voyage Tio Gabriel! I'm sure you'll find a wonderful new home in cryptoland.
871866598339919872,2017-06-05 23:09:30,RT @The_Crypto_Show: The Crypto Show: Erik Voorhees on Prism &amp; Lyn Ulbricht on Ross's Appeal https://t.co/y2ZjSBOnjm @ErikVoorhees @Free_Ro‚Ä¶
871845614555766784,2017-06-05 21:46:07,"@ToneVays @Xentagz @ShapeShift_io Fair enough, no worries... if you ever feel a price is unfair, please get in touc‚Ä¶ https://t.co/iokLOK2E7C"
871821310946627588,2017-06-05 20:09:32,"@ToneVays @Xentagz @ShapeShift_io Don't be disingenuous. ShapeShift spreads are roughly 0.5% over cost, and it was‚Ä¶ https://t.co/j05rdMvAzT"
871127951831519232,2017-06-03 22:14:23,"@Ethereal_seal @AnonOnAMoose I'd consider it, sure. I'd much rather hold value in gold than in fiat. In either case‚Ä¶ https://t.co/CIDO5VGVfg"
871065747065249792,2017-06-03 18:07:12,"@MrBobGilbert Not sure how to measure ""new dollars flowing in,"" but it's true that the entire industry is going through tremendous growth."
871065501895581697,2017-06-03 18:06:13,"@Pietpiraat2016 Use the Precise order type.  Also, limits on lower-liquidity coins will be lower than on high-liqui‚Ä¶ https://t.co/PTChcrwZR4"
871061520226033665,2017-06-03 17:50:24,"The implication? That digital tokens are an expanding asset class, and that all of crypto is turning into a big multi-asset network."
871061192285892608,2017-06-03 17:49:06,@L1AD @sytaylor Both today
871061153287254017,2017-06-03 17:48:57,@AnonOnAMoose All revenue is held in Bitcoin (primarily) and Ether (secondarily).
871057950734901249,2017-06-03 17:36:13,"Six months ago, ""Alt to Alt"" was ~3% of ShapeShift's transactions. Today, for the first time ever, it's over 50%. https://t.co/UPChiaZqiy"
871056016875466752,2017-06-03 17:28:32,@britesense @ToneVays I'm sure Kathy Griffin would've liked it.
871040904085159936,2017-06-03 16:28:29,"RT @token_summit: Just released #tokensummit video with @ErikVoorhees (ShapeShift) &amp; @NTmoney, State of Tokens. https://t.co/QRY0fCrM3v @Sh‚Ä¶"
871005389852102656,2017-06-03 14:07:22,"@TheFlamcake Ethereum, the world's second biggest blockchain, exists because it offered a token sale."
871004529453481986,2017-06-03 14:03:56,@britesense @ToneVays This is just embarrassing.
870822475965227009,2017-06-03 02:00:32,"""Bitcoin is a ponzi scheme"" -Statists circa 2012.   ""ICO's are a ponzi scheme"" -Statists circa 2017.  #FreedomIsScary #MoarRegulationPls"
870821590107209728,2017-06-03 01:57:00,"@Melt_Dem @izakaminska ""Bitcoin represents the reconstitution of a hierarchal system that directs wealth into the h‚Ä¶ https://t.co/B0Bdk1EJGn"
870819633380564993,2017-06-03 01:49:14,@NeerajKA @Melt_Dem @acityinohio Still more honest than fiat banking.
870819097746980865,2017-06-03 01:47:06,@brian_trollz @adam3us @yougiano @rogerkver @YourBTCC @bobbyclee @Excellion @Satoshi_N_ @BitcoinUnlimit‚Ä¶ https://t.co/bmXyODJZ09
870817779779108864,2017-06-03 01:41:52,@Melt_Dem @izakaminska That article is trash. Same drivel that has been declaring Bitcoin a ponzi because it is pri‚Ä¶ https://t.co/Q1GnWbJYQC
870784925653278720,2017-06-02 23:31:19,Japan‚Äôs largest Forex market opens Bitcoin exchanges to overwhelming demand https://t.co/MtxNU0Qy0X #finance
870737793244250112,2017-06-02 20:24:02,@eric_lombrozo @MrHodl @adam3us @yougiano @rogerkver @YourBTCC @bobbyclee @Excellion @Satoshi_N_ @BitcoinUnlimit‚Ä¶ https://t.co/awTv4QNt7L
870736224016781312,2017-06-02 20:17:47,@adam3us @yougiano @rogerkver @YourBTCC @bobbyclee @Excellion @Satoshi_N_ @BitcoinUnlimit @gavinandresen @JihanWu‚Ä¶ https://t.co/3Q0yzXMajL
870735281158094849,2017-06-02 20:14:03,"This image is the best visual explanation of the pattern of Bitcoin &amp; all cryptos, as they rise long term https://t.co/uF6yuQlROB  @chsm1th"
870734778944823296,2017-06-02 20:12:03,Best article on Bitcoin I've seen at ZeroHedge: Projecting The Price Of Bitcoin | Zero Hedge https://t.co/f6dbMhwpcr #finance #blockchain
870708792106680321,2017-06-02 18:28:47,"RT @zcom_coin_jp: „Äê„ÅäÁü•„Çâ„Åõ„Äë„Äå„Éï„É´„Ç¢„ÇØ„Çª„Çπ„Éó„É©„É≥„Äç„Å∏„ÅÆ„Ç¢„ÉÉ„Éó„Ç∞„É¨„Éº„Éâ„Å´„Å§„ÅÑ„Å¶
https://t.co/8knmEZNkCJ"
870701299838312449,2017-06-02 17:59:01,@MrHodl @adam3us @yougiano @rogerkver @YourBTCC @bobbyclee @Excellion @Satoshi_N_ @BitcoinUnlimit @gavinandresen‚Ä¶ https://t.co/9QuNSQbGpI
870697819501248512,2017-06-02 17:45:11,@BryanMicon @robustus So much horrible usage!!!
870697636268867587,2017-06-02 17:44:27,RT @maraoz: .@demibrener is back from his adventures in NYC and he brought me these amazing @ShapeShift_io socks! :] https://t.co/GYBFm0gQWT
870679886335098881,2017-06-02 16:33:56,@adam3us @yougiano @rogerkver @YourBTCC @bobbyclee @Excellion @Satoshi_N_ @BitcoinUnlimit @gavinandresen @JihanWu‚Ä¶ https://t.co/mWHiCK1t2m
870679093947150337,2017-06-02 16:30:47,"@TheBluntBaronet Governments, like gods, are sought and endorsed by those who can't fathom individualism, equality, and spontaneous order."
870678619915296768,2017-06-02 16:28:54,"@robustus SatoshiDice was 50% of the network, but the network was 5% as large."
870668828140650496,2017-06-02 15:49:59,Why do points like this always get missed? https://t.co/hKtuv45A8K
870667676137299968,2017-06-02 15:45:24,"@yeahthisiscuddy @Nouriel Commodities of all kinds don't generate cash. You buy them to use them, or because you be‚Ä¶ https://t.co/7NMZLMNWmX"
870491072547274753,2017-06-02 04:03:39,@least_nathan Well... government/democracy seems to be the ultimate case of tragedy of the commons. Pollution = pro‚Ä¶ https://t.co/EiGLov8tvG
870490607273234437,2017-06-02 04:01:48,A few years later has now arrived... Bitcoin one of the world's best investments since @nouriel condemned it as a s‚Ä¶ https://t.co/KLjL8NNMYS
870489680856309760,2017-06-02 03:58:07,"If basic rules against fraud, theft, property damage, and violence were actually enforced, what need at all is there for ""regulations?"""
870442129914421248,2017-06-02 00:49:10,Agree. https://t.co/9ke8FtA0F4
870417373068615680,2017-06-01 23:10:47,"It's always important to listen to your community. We've changed the fee structure of Prism, here are the details: https://t.co/8VN24KN5BS"
870385774809591809,2017-06-01 21:05:14,"RT @lopp: Folks who feel they missed the bitcoin boat are going to get a lesson in how small of a number 21,000,000 is relative to global p‚Ä¶"
870385054655983618,2017-06-01 21:02:22,Florida Man Jailed 180 Days for Not Giving Police His iPhone Password https://t.co/lgKRTmjkbT
870382786057654273,2017-06-01 20:53:21,"This is actually... quite profound. There is truth to it. Incentives can now emerge in new places, with frictionles‚Ä¶ https://t.co/jjeXbtRUHW"
870348549959032832,2017-06-01 18:37:19,Daniel Masters on CNBC: Bitcoin is emerging as digital gold https://t.co/kQyKjpZv5U
870336875369684992,2017-06-01 17:50:55,@Ferdinando1970 @barrysilbert @VitalikButerin @giacomozucco I absolutely endorse the concept/structure/innovation t‚Ä¶ https://t.co/9SIHNHLquI
870326980427698176,2017-06-01 17:11:36,@ssoeborg why?
870308422796795904,2017-06-01 15:57:52,"RT @SpellsofGenesis: Check out the Progress Report ""Witch Hunters""! Amazing things are coming! https://t.co/7kjHyr3KsF #gaming on the #bloc‚Ä¶"
870308372628635650,2017-06-01 15:57:40,RT @GeorgeAHallam: Trying to stay on top of all the research/advances/projects in the #blockchain space is like drinking from a fire hose.‚Ä¶
870257439198728193,2017-06-01 12:35:16,Britain's largest broker offers bitcoin investment https://t.co/2dLS4XFOBj via @Telegraph
870126366959611905,2017-06-01 03:54:26,@lightcoin Sounds eerily familiar to the insults hurled at Bitcoin in 2011 and 2012
870084459000811520,2017-06-01 01:07:55,"@jgarzik @js_horne @ShapeShift_io What an honor to serve you Jeff, thank you for being a customer!"
870045348164583424,2017-05-31 22:32:30,@naval Respectfully disagree... there will be other models than those two options (both legitimate and illegitimate)
870043182515474432,2017-05-31 22:23:53,"@ematiu @ShapeShift_io They will take care of you, don't worry. Volumes have been immense today, over 15,000 orders."
870042951870685184,2017-05-31 22:22:58,@Seccour_FR I want whatever helps SegWit happen fastest.
870019830023245824,2017-05-31 20:51:06,"@FaberJannes lol by ""dumping externalities"" you mean ""using the bitcoin blockchain and paying miner fees."""
870004243586883584,2017-05-31 19:49:10,RT @SaltLending: Thanks to @biz_michael from @BitcoinMagazine for the awesome article on @SaltLending @BitcoinMagazine! https://t.co/9UOTVW‚Ä¶
870003584586268676,2017-05-31 19:46:33,Best sticker at Consensus from https://t.co/40vIs2hpqx #bitcoin https://t.co/jENxwB4CIS
869998153562337280,2017-05-31 19:24:58,Bitcoin's 'SegWit2x' Scaling Proposal: Where Startups Stand https://t.co/ue8N9sw3pV via @CoinDesk
869997395026653184,2017-05-31 19:21:57,"RT @AmandaB_Johnson: Erik Voorhees Talks @Prism_Exchange, World's First Trustless Portfolio Platform
https://t.co/gz1SlXCYDP
@ErikVoorhees‚Ä¶"
869996044506943488,2017-05-31 19:16:35,RT @TimParsa: @ShapeShift_io Thought you'd enjoy this. https://t.co/49DPawocH5 Crypto-Cambrian Explosion or Programmable Money Primordial S‚Ä¶
869958362598785026,2017-05-31 16:46:51,ShapeShift was 2.8% of all Bitcoin transactions in the past 24 hours.
869932909846683648,2017-05-31 15:05:42,"@SamHadzajlic @WhalePanda I'm not neutral. I advocate SegWit ASAP, and 2MB HF ASAP. I hold those positions strongly."
869932542501175297,2017-05-31 15:04:15,Something's wrong when loaning money to a counterparty yields negative real return. Evidence of a fundamentally distorted global economy.
869920307263356929,2017-05-31 14:15:38,"Bitcoin could hit $100,000 in 10 years, says the analyst who correctly called its $2,000 price https://t.co/IAe1vo0Ixz"
869909414773485569,2017-05-31 13:32:21,"@TenaciousBTC @WhalePanda Advocating SegWit is not terrorism, no."
869892952654438400,2017-05-31 12:26:56,Republicans Slap down the IRS for Its Coinbase Bitcoin Tax Hunt https://t.co/FZQCdO2LdH via @CryptoCoinsNews
869297448111550464,2017-05-29 21:00:37,‚ÄúReview of ShapeShift Prism‚Äù by https://t.co/Cx8ZkPLARM https://t.co/owbhd8pjp2
869294537910493184,2017-05-29 20:49:03,@BTC4USD @barrysilbert @2drewlee It must be scary to live in a world in which conspiracies are happening around every corner.
869292834951757825,2017-05-29 20:42:17,"@BTC4USD @barrysilbert @2drewlee Only the Maserati, but it didn't have any strings attached."
869252260827729920,2017-05-29 18:01:03,"@WhalePanda No, creepy to don the symbols of the world's biggest terrorist organization."
869252071597506560,2017-05-29 18:00:18,@kokotheapechild I don't support BU... always fun when anonymous internet trolls can't even get their bitching points right.
869234446922391552,2017-05-29 16:50:16,"@Beautyon_ @eric_lombrozo @mdotbit That's nice to hear, thank you. I'm driving this train to Mordor."
869232817363968001,2017-05-29 16:43:47,"@Technom4ge I support SegWit. I support 2MB HF. I'm undecided on UASF, but not opposed to it."
869232058681479170,2017-05-29 16:40:46,"@dantwany @desantis @flibbr @Coinivore @eric_lombrozo It's a comparison of argument, not of circumstance. Argument‚Ä¶ https://t.co/8qyaIepMUx"
869231813444718594,2017-05-29 16:39:48,@Beautyon_ @eric_lombrozo @mdotbit Thank you for the kind words.
869231480064573440,2017-05-29 16:38:29,"@ziggamon Undecided. If the DCG SegWit+2MB plan doesn't materialize, then probably yes."
869228157269938176,2017-05-29 16:25:16,"It's amazing that people think I'm anti-SegWit, anti-UASF, and anti-progress, all because I refuse to hate certain people."
869227446939381762,2017-05-29 16:22:27,"@Alex__Chaparro @JihanWu @rogerkver What do you mean ""see me with?"""
869227109067214849,2017-05-29 16:21:06,"@ziggamon @britesense I'm not opposed to UASF. I want SegWit, and/or a 2MB HF (preferably both), asap. Whatever get‚Ä¶ https://t.co/2xIvJxOzM8"
869220302055723013,2017-05-29 15:54:03,Kinda creepy now seeing all the UASF supporters wearing US military hats and spewing war analogies.
869219144876650496,2017-05-29 15:49:28,"@desantis @CryptoCalories @flibbr @Coinivore @eric_lombrozo You're right, I probably should do that now... though I‚Ä¶ https://t.co/4CmyuCWi0n"
869218431693983744,2017-05-29 15:46:38,"@Beautyon_ @eric_lombrozo @mdotbit I was responding to ""Instead Eric's speaking up for bitcoin users in the face of‚Ä¶ https://t.co/yw8VgG2x5D"
869217432791117828,2017-05-29 15:42:39,@CryptoCalories @desantis @flibbr @Coinivore @eric_lombrozo Again... terms and wording were changed. Please stop spreading misinformation.
869217139219214338,2017-05-29 15:41:29,"@desantis @flibbr @Coinivore @eric_lombrozo Again, more ignorance... good lord. The SEC case had nothing to do with‚Ä¶ https://t.co/YzQHGG62To"
869216769684254720,2017-05-29 15:40:01,"@desantis @flibbr @Coinivore @eric_lombrozo The language was changed, dude. If you wouldn't flip when language you‚Ä¶ https://t.co/jKbG0L3Iyc"
869216398584819712,2017-05-29 15:38:33,"@Beautyon_ @eric_lombrozo @mdotbit So ""big business interests"" refers to Bitmain only? Pretty loose and loaded term to fling around."
869215929770672128,2017-05-29 15:36:41,"@desantis @Coinivore @eric_lombrozo ""Advise"" = had a one hour call with them a year ago to discuss the bitcoin indu‚Ä¶ https://t.co/1yZ07nohBa"
869215633820581888,2017-05-29 15:35:31,@desantis @Coinivore @eric_lombrozo Sounds like you don't know what a civil case is. Why can't my trolls be a little more educated?
869213808610471936,2017-05-29 15:28:15,"@mdotbit @eric_lombrozo Are you referring to the ""big businesses"" that actually support and provide services to 95% of all Bitcoin users?"
869213537431945216,2017-05-29 15:27:11,@desantis @Coinivore @eric_lombrozo There was no jail or threat of jail. It was a civil suit for not getting permis‚Ä¶ https://t.co/M2EbO1oWLF
869212387441872897,2017-05-29 15:22:37,"@desantis @eric_lombrozo Try being direct and stating things clearly. What do they pick? And what is my side, exactly?"
869210558490456064,2017-05-29 15:15:20,@desantis @eric_lombrozo What does that have to do with the discussion?
869208090922680320,2017-05-29 15:05:32,"@eric_lombrozo Well there's nothing wrong with that, necessarily, but don't also go around claiming to be ""above politics."""
868987418371870724,2017-05-29 00:28:40,Japanese Internet Giant GMO Postpones Launching Bitcoin Trading Platform https://t.co/w8ogmKAK0A via @BTCTN
868879662847594496,2017-05-28 17:20:29,"@eric_lombrozo You have gotten so political :(  Statements like this are only divisive, rhetorical, &amp; hyperbolic, not to mention wrong."
868861946438746112,2017-05-28 16:10:05,"""Every major country has a digital currency exchange &amp; every major financial institution is working on blockchains."" https://t.co/zt7nVSFkSu"
868829787921559552,2017-05-28 14:02:18,‚ÄúThoughts on Tokens‚Äù by @balajis https://t.co/zt7nVSFkSu
868551678663983105,2017-05-27 19:37:11,Fidelity to allow clients to see digital currencies on website https://t.co/maMrbPHQm7 via @Reuters
868325154681651200,2017-05-27 04:37:04,@ivanba12 Then go build something better you lazy troll. Coinbase isn't perfect but they are kicking ass
868324770047242240,2017-05-27 04:35:32,"@Bitfinexed @Sonnenshein @ShapeShift_io Except crypto as an industry has been going up 1,000% per year."
868322496445124608,2017-05-27 04:26:30,Amazing... that is so cool :) https://t.co/asKlL3oNgc
868321974078058496,2017-05-27 04:24:25,"RT @libertyepodcast: LE69 ‚Äì Inside the Mind of a Serial Bitcoin Entrepreneur w/ @ErikVoorhees 
https://t.co/5Nh8RTObxy https://t.co/IsUtwEF‚Ä¶"
868321856985714688,2017-05-27 04:23:58,RT @Sonnenshein: congrats to @ErikVoorhees and the @ShapeShift_io team -- this is big for crypto! https://t.co/mHoJyC19C2
868321537123921924,2017-05-27 04:22:41,@m23mclaughlin 5 to 10% maybe?
868282452984332289,2017-05-27 01:47:23,JPMorgan Chase To Integrate Zcash Technology To Its Enterprise Blockchain Platform via @forbes https://t.co/bpw65EjM2c
868203471052210176,2017-05-26 20:33:32,Wired: How One Scrappy Startup Survived the Early Bitcoin Wars https://t.co/Ily2uluA8O via @WIRED
867876884490706944,2017-05-25 22:55:48,RT @ARKblockchain: Prism from @ShapeShift_io makes #cryptoasset portfolio management flawless. #tokensummit https://t.co/k64eKRetRv
867876439995158530,2017-05-25 22:54:02,"@alistairmilne Perhaps neither should people who dont have at least 100,000 customers"
867875547640193025,2017-05-25 22:50:29,RT @JohnStossel: https://t.co/h2Ww9OWdBD
867875071032995842,2017-05-25 22:48:35,Wall St Journal: #bitcoin fell $300 on Thursday afternoon - and still rose on the day https://t.co/UrGCok2HWx via @WSJMoneyBeat #finance
867822629356482561,2017-05-25 19:20:12,@DavidKram @rogerkver @barrysilbert It's down because a bunch of people sold a bunch of it. Current price is roughl‚Ä¶ https://t.co/xvL5ofMFd4
867751961193586688,2017-05-25 14:39:24,Shapeshift Launches Decentralized Portfolio Platform Prism https://t.co/7bN86aBygq via @BTCTN @Prism_Exchange
867716057301209089,2017-05-25 12:16:44,Token Summit! #finance #blockchain #tech https://t.co/EmLiOPDnsK
867365262324113409,2017-05-24 13:02:48,"@eric_lombrozo For someone who always dismisses others for being ""political""... you're sounding like a politician."
867363453278834688,2017-05-24 12:55:36,"@JikkuJose @ShapeShift_io The Prism's are fully collateralized on both sides, so ShapeShift doesn't ""manage payouts‚Ä¶ https://t.co/QXrAzfu8Uk"
867144290409099266,2017-05-23 22:24:44,Fidelity to allow clients to see digital currencies on website https://t.co/maMrbPHQm7 via @Reuters
867144258385563648,2017-05-23 22:24:36,"I support this. SegWit now, HF soon. ‚ÄúBitcoin Scaling Agreement at Consensus 2017‚Äù by @DCGco https://t.co/VmQ4cEVxcz"
867002273918070784,2017-05-23 13:00:24,"@orphanedblock @jpblincoe It was joke, and kinda funny :)  I have no qualms with Blockstream."
867001985249234944,2017-05-23 12:59:16,"Cryptocurrency has probably created around 10,000 millionaires. #bitcoin #ethereum"
866873012825534464,2017-05-23 04:26:46,"RSK Raises $3.5 Million, Launches Bitcoin Smart Contract Testnet https://t.co/dDscjZgz5k via @CoinDesk"
866870823092719616,2017-05-23 04:18:04,You're gettin' it :) https://t.co/A7alZC9LEO
866870757464436736,2017-05-23 04:17:48,"RT @avsa: @izqui9 @ShapeShift_io This is the future I've been pitching: digital companies holding and managing digital assets, beyond just‚Ä¶"
866859452691075072,2017-05-23 03:32:53,RT @jpblincoe: Q: Should we go to the Blockstream party?  A: Will they let more than 2 people per ten minutes in?
866773240739491840,2017-05-22 21:50:19,"RT @dgenr818: @Prism_Exchange Blown away. What a great feature for crypto users. Really smart expansion move for @ShapeShift_io, leveraging‚Ä¶"
866760650453864449,2017-05-22 21:00:17,"RT @twobitidiot: Prism is the coolest new product at Consensus. Smart contract enforced, customized crypto index funds. https://t.co/MZ4mJR‚Ä¶"
866760352133984256,2017-05-22 20:59:06,"@brantonbits You're correct it is more accurately ""mostly trustless"" today, and we know how to get to fully trustle‚Ä¶ https://t.co/CJxURXKfNL"
866739300225953794,2017-05-22 19:35:27,Introducing Prism: The world's first trustless portfolio market platform https://t.co/i3Z7NASUhu #Ethereum #blockchain #consensus2017
866726182464741377,2017-05-22 18:43:19,"Thank you!  FYI - Prism invites will be granted slowly, please register if you'd like an invite. https://t.co/69Xi3OHDaO"
866373805085777920,2017-05-21 19:23:06,"RT @ShapeShift_io: üéâ 1 Day Left! Don't miss the big reveal of Prism, our smart contract platform -  https://t.co/URIOOFvmu7"
866054187544715265,2017-05-20 22:13:03,Very excited about this project. Forbes: Blockchain-Backed SALT Loans Platform In Launch To Leverage Bitcoin Assets https://t.co/MoHGflevLS
866048689860521984,2017-05-20 21:51:12,"TechCrunch: Bitcoin just surged past $2,000 for the first time https://t.co/bJlo7nUMc9 via @techcrunch #finance #blockchain #EndTheFed"
865547096622907394,2017-05-19 12:38:03,"CNBC:  ""Bitcoin is the ""new gold"" and appears to be a good hedge going forward."" https://t.co/BwVIdUEHR3"
865285046319624193,2017-05-18 19:16:45,"@meeDamian @Neuro_Drone @SamouraiWallet @Satoshi_N_ @Raspberry_Pi Sure, and it is. A full node can be run for $100‚Ä¶ https://t.co/b98hiFi0qd"
865283155024019456,2017-05-18 19:09:14,@Neuro_Drone @SamouraiWallet @meeDamian @Satoshi_N_ @Raspberry_Pi Let me clarify if it was unclear. It's great to r‚Ä¶ https://t.co/SBos0R2w3x
865281646471368704,2017-05-18 19:03:15,"@SamouraiWallet @gavinandresen @rogerkver @JihanWu Wow, WTF @SamouraiWallet?!? That is not at all what I said. Btw,‚Ä¶ https://t.co/ENoi9kJxKX"
865253937590546432,2017-05-18 17:13:09,"@eggsby @andzsy @SouperNerd @ACVanZant I don't understand your tweet at all. I'm not ""punting"" anyhting, I'm trying‚Ä¶ https://t.co/jHeOpCfHm6"
865253689648394240,2017-05-18 17:12:09,@freedomnodecom @ndrchvzz Yes absolutely. Coinbase alone has almost 7m users and 22m wallets. https://t.co/yiQuBmnfi2
865253383023861760,2017-05-18 17:10:56,"@timoncc I would love to ""have sw"". That's why I'll likely support most proposals that make SegWit likely to actually activate."
865252950087806977,2017-05-18 17:09:13,@rogerkver @aantonop @gavinandresen @jgarzik @Satoshi_N_ @ViaBTC @seweso @olivierjanss @JihanWu @drwasho Did I say‚Ä¶ https://t.co/vt9XNjHc0n
865214183058673665,2017-05-18 14:35:10,@ndrchvzz Already more than 99% of Bitcoiners don't run full nodes. Seems to be okay.
865213984290557952,2017-05-18 14:34:23,"@brian_trollz @BashCo_ ""Dealing with it"" is going to increasingly mean ""use cheaper, faster alternatives."""
865213685635141632,2017-05-18 14:33:12,@britesense Already more than 99% of Bitcoin users aren't running full nodes. Which of us isn't learning?
865213198898692096,2017-05-18 14:31:16,@lopp They don't need to run a full node to achieve that. They DO need a payment system that doesn't cost $3 to send $5.
865213046288986112,2017-05-18 14:30:39,@RyanMilb I mentioned a few in the reddit comment
865212880861487104,2017-05-18 14:30:00,"@eggsby @andzsy @SouperNerd @ACVanZant The goal is to enable more transactions per second, and thus lower fees. Why‚Ä¶ https://t.co/haD1sK0f4L"
865212468678860801,2017-05-18 14:28:22,@BashCo_ Not recent. I've been saying it since 2011. You actually think most users should run full nodes?? Bitcoin‚Ä¶ https://t.co/cRoTanqBjm
865212185571721216,2017-05-18 14:27:14,@libovness Great point
865212120601960448,2017-05-18 14:26:59,"@eggsby @lopp Dictating? I think the word you're looking for is ""suggesting,"" which is the very essence of an open project."
865211010373824513,2017-05-18 14:22:34,"This whole ""protocol development can't compromise"" meme is bullshit. Many elements are already a compromise https://t.co/ba2pGaO6jZ #bitcoin"
865207259055484928,2017-05-18 14:07:39,RT @barrysilbert: We are now at 78.3% of the bitcoin hash rate in support of the scaling compromise https://t.co/fC6XHnGmCU
865206390834569216,2017-05-18 14:04:12,99.99% of Bitcoin users should not run a full node. The protocol should be designed with that understanding. Netbook in India =/= full node.
865205799198621696,2017-05-18 14:01:51,"Bitcoin's properties as money must remain immutable. Bitcoin's properties as a P2P network, however, must adapt/evolve, else others will."
865053714213724160,2017-05-18 03:57:32,"@lightcoin SegWit doesn't seem to be ""ready now."" It has been stuck for... a year?"
865053443207122944,2017-05-18 03:56:27,@blackmon2_ @stewartslockbox @SegWit @ShapeShift_io SegWit plus 2x. So SegWit and then double blocksize.
865050546834636801,2017-05-18 03:44:56,"@mangicrypto Names are important, especially if they're used to block/dismiss underlying arguments. Not sure what A‚Ä¶ https://t.co/yC3nLOEDWD"
865049234155995136,2017-05-18 03:39:43,"Whether ""SegWit is a blocksize increase"" is a semantic distraction. SegWit is a ~2x scale booster. Great. So is 2MB HF. Let's have both ASAP"
865048702813167616,2017-05-18 03:37:37,"@ndrchvzz @barrysilbert @brucefenton @eric_lombrozo @bitcoincoreorg ""just trust the inner circle, they know what they're doing"""
865048186800545792,2017-05-18 03:35:34,"Suggestion... rename SegWit+2MB HF to SegWit+2X HF. Removes the argument that ""SegWit is 2MB!"" #bitcoin @barrysilbert"
865045732411232257,2017-05-18 03:25:49,"@blackmon2_ There are a number of variations, but anything that ties together SegWit and a HF to larger blocks, such that they both happen."
865045529729929217,2017-05-18 03:25:00,Bloomberg: Inside Bitfinex's Comeback from a $69m bitcoin heist.  https://t.co/Ca29sCBzSD #finance #blockchain #tokens
865040244659421184,2017-05-18 03:04:00,"@davef__ @CharlieShrem @Excellion Most want SegWit and a modest, well-planned HF as well, especially if doing both‚Ä¶ https://t.co/bWqmhSOIH3"
865039830715072512,2017-05-18 03:02:21,"Hey Core folks, support your local SegWit+2MB HF initiative. Hey Anti-Core folks, do the same thing. Bitcoin and it‚Ä¶ https://t.co/ZYfDY0tQY8"
865021532845871104,2017-05-18 01:49:39,@davef__ @CharlieShrem @Excellion Hmmmm almost everyone in the Bitcoin business community wants it... the companies‚Ä¶ https://t.co/BKac3ytaHZ
865002033694167040,2017-05-18 00:32:10,So there is now a Special Agent Muller from the FBI investigating Trump?  #TrumpFiles #FBIDirector #ComeyMemo #TheTruthIsOutThere
864973435491037184,2017-05-17 22:38:32,RT @ShapeShift_io: ShapeShift has added $Komodo + $GameCredits to the exchange! Buy/sell #KMD + #GAME with dozens of digital assets: https:‚Ä¶
864957236539518979,2017-05-17 21:34:09,@eric_lombrozo @spair I suppose only Core Devs are immune from corrupting influence? Everyone else who disagrees wi‚Ä¶ https://t.co/AkPsPtYGTJ
864953458528595969,2017-05-17 21:19:09,Medici Ventures announces the formation of the company's inaugural board of directors.  https://t.co/yuDFRL6Czc #bitcoin #blockchain
864911316229787649,2017-05-17 18:31:41,"@eric_lombrozo @AdamCox11 @barrysilbert It does make sense technically. You're using the ""political appeasement"" ex‚Ä¶ https://t.co/I44kEJ5aUr"
864907331771011074,2017-05-17 18:15:51,"@eric_lombrozo @AdamCox11 @barrysilbert ...dude, you've said yourself a HF block increase in the not too distance f‚Ä¶ https://t.co/JEEcWs6RDO"
864901672203583492,2017-05-17 17:53:22,@eric_lombrozo @barrysilbert You know that's not what it refers to. Please stop diverting the initiative like that.‚Ä¶ https://t.co/ggCDXCZIvf
864901344716566528,2017-05-17 17:52:04,Myself and @ShapeShift_io are among them. I cannot endorse this strongly enough. https://t.co/HAWyXpS9tU
864899334764154880,2017-05-17 17:44:05,"@stewartslockbox @SegWit @ShapeShift_io It's enough for now, it would buy time, and enable 2x the transactional thr‚Ä¶ https://t.co/UblnkMpWro"
864897744703553536,2017-05-17 17:37:46,"Really enjoyed doing this interview with Ashe at @libertyepodcast.  Over beers, we discuss many topics, all related‚Ä¶ https://t.co/XcHt6iXF4o"
864693557822619648,2017-05-17 04:06:24,Wired: How One Scrappy Startup Survived the Early Bitcoin Wars   https://t.co/g4NjwEEqKp
864654917230891008,2017-05-17 01:32:51,@timpastoor @Excellion The community should rally around SegWit+2MB HF. Supporters of each side should stop vilifying the other.
864653791664254977,2017-05-17 01:28:23,@timpastoor @Excellion Nope. I'm saying we use Bitcoin at commercial scale (input and output). The backlogs and fee‚Ä¶ https://t.co/KYJIGSshDP
864652759102083072,2017-05-17 01:24:16,"ShapeShift sends or receives over 1% of the world's daily Bitcoin transactions. We support SegWit, and we support 2MB HF, both ASAP."
864651956144545792,2017-05-17 01:21:05,@timpastoor @Excellion We handle thousands of BTC transactions every day. Things are seen at commercial scale that‚Ä¶ https://t.co/PXOpsPFQZm
864650337675866112,2017-05-17 01:14:39,@timpastoor @Excellion How many transactions do you send/receive per day?
864650227290185729,2017-05-17 01:14:13,"@tonylipsey @barrysilbert @ShapeShift_io Sure, me too... but it's not happening, soooo now what?"
864648953517793280,2017-05-17 01:09:09,"@30somethingSTL The order really doesn't matter. Both should happen, especially if both happening enables both to happen."
864645354855247873,2017-05-17 00:54:51,"@Excellion There is never shortage of gold, only a changing price. There is absolutely shortage of blockspace if txs/second rise above ~5."
864644939996700672,2017-05-17 00:53:12,"@MashuriBC @Excellion Sure, but it is extremely small, while TX fees are getting prohibitively large. Running node‚Ä¶ https://t.co/FdLlWs9VrY"
864644170899705857,2017-05-17 00:50:09,"@Excellion ""Bitcoin hasn't changed either.""  So not true from a UX (ie - actual use) perspective. How many txs do you send/receive per day?"
864643799783534592,2017-05-17 00:48:40,"@MashuriBC @Excellion Larger block limit will decrease Cost #1 drastically, and increase Cost #2 linearly. Thus, a‚Ä¶ https://t.co/CjdaujqT1H"
864641535941509120,2017-05-17 00:39:41,@MashuriBC @Excellion You're confusing Cost #1 (sum of mining fees) with Cost #2 (sum of bandwidth/disk expense). They are not equal.
864638788420739072,2017-05-17 00:28:46,@_smithjason @ShapeShift_io Except we do. We need any increase in TX throughput. SegWit = good. 2MB HF = good. Both of them = awesome.
864638496492924930,2017-05-17 00:27:36,@Excellion Pretty vapid comparison. Gold hasn't changed in weight or cost to ship. Bitcoin has gotten slower and 10‚Ä¶ https://t.co/v4RLAUNJLA
864638150840332288,2017-05-17 00:26:14,@WahWhoWah @JackMallers @ShapeShift_io Calling people names doesn't help scale. Nobody benefits financially from th‚Ä¶ https://t.co/EgNYjCT6sR
864637865845821441,2017-05-17 00:25:06,"@_smithjason @ShapeShift_io If I had the power to ""activate just segwit"" then I would, but I don't have that power. So now what?"
864607406541733888,2017-05-16 22:24:04,So it appears only 0.00000001% of Bitcoin transactions are used for terrorist financing.  https://t.co/1DNBWIjof0
864606641253122048,2017-05-16 22:21:01,@gitju And what about the 99% who fit between those two extremes?
864606433492520962,2017-05-16 22:20:12,@JackMallers @ShapeShift_io What validates a change to the rule is that Bitcoin is degrading in performance and bec‚Ä¶ https://t.co/trpikcqrd1
864605673052659712,2017-05-16 22:17:10,"@hernzzzzzz @JackMallers @ShapeShift_io Same debate, same arguments. Meanwhile blocks more full, tx fees higher. So‚Ä¶ https://t.co/hQ6wui6nvz"
864600929269669888,2017-05-16 21:58:19,@JackMallers @ShapeShift_io Because a large portion of miners refuse to accept SegWit without a HF to larger blocks.
864600705302224896,2017-05-16 21:57:26,@MrHodl @ShapeShift_io I'm in favor of that. But it's not happening.
864600051192139776,2017-05-16 21:54:50,@Neuro_Drone @JackMallers @ShapeShift_io ...oh I thought we were talking about Bitcoin?
864599939896287234,2017-05-16 21:54:23,@notgrubles @ShapeShift_io We're still trying to support Bitcoin and use it. Getting worse and worse.
864598663628296197,2017-05-16 21:49:19,@got_goxed @ShapeShift_io Have done.
864598595219181569,2017-05-16 21:49:03,"@JackMallers @ShapeShift_io ""Rely on math and science""... great suggestion, hadn't considered that. Here's some mat‚Ä¶ https://t.co/pX2mSFzNVy"
864596969934737409,2017-05-16 21:42:35,@JackMallers @ShapeShift_io SegWit+LN doesn't seem to be occurring. Over a year with zero progress. It's beyond tim‚Ä¶ https://t.co/ZbW0iU5x9O
864595884914466816,2017-05-16 21:38:17,bwahahahah https://t.co/ToOHFY4wgZ
864595597927616513,2017-05-16 21:37:08,"I just sent a fiat wire for @ShapeShift_io, and then a BTC transaction for inventory balancing. The fiat wire was cheaper. 2MB+SegWit please"
864594854181052416,2017-05-16 21:34:11,"@Awyee707 @ShapeShift_io Not a fad, in my humble opinion. Let me know what you think of Prism when it's revealed."
864574560225513472,2017-05-16 20:13:32,The horrible joke of government money. https://t.co/cXuAWbjGmx
864503490722365441,2017-05-16 15:31:08,"RT @ShapeShift_io: üéâOnly 7 days until our smart contract-powered platform, #Prism announcement! Be the first to know: https://t.co/M2plarOD‚Ä¶"
864333550883098624,2017-05-16 04:15:51,RT @ShapeShift_io: ShapeShift has added $Gamecredits to the exchange. Buy/sell #GAME with no account needed! ShapeShift.io
864264548026654721,2017-05-15 23:41:40,Really enjoying the book! https://t.co/goJ5ymMult
863938146047844352,2017-05-15 02:04:39,"MSFT: ""Repeatedly, exploits in the hands of governments leaked into the public domain and caused widespread damage."" https://t.co/C6bw34oxud"
863767340814618624,2017-05-14 14:45:56,Arizona Passes Bill To End Income Taxation On Gold And Silver https://t.co/pFJpdf1YJ9
863579448154755072,2017-05-14 02:19:19,"24 Hours Later: ""Unprecedented"" Fallout From ""Biggest Ransomware Attack In History"" | Zero Hedge https://t.co/GCYUUw7SJJ"
863422025892843520,2017-05-13 15:53:47,RT @TheControI: Token Summit Session 1: State of Tokens w/ @erikvoorhees https://t.co/zp55NrcPBX
863054249890111489,2017-05-12 15:32:22,Four things to know about bitcoin bubbles  https://t.co/Q5CGk6OFr9 #finance #fintech
862718082690764800,2017-05-11 17:16:34,@peeticek We'll see about that ;)
862717914545258502,2017-05-11 17:15:54,@AlexRuppertVC @token_summit @fredwilson @jbrukh @licuende @maciejolpinski @julianzawist @Melt_Dem You should def m‚Ä¶ https://t.co/fmQoUVEpz6
862717738309038124,2017-05-11 17:15:11,RT @hudsonjameson: Super excited for this! https://t.co/sdASqLvjma
862717620390432768,2017-05-11 17:14:43,"@zeekichan @bitter_coin @MikeEMars @ShapeShift_io We've never ""lost coins"", and we don't have fees, only an exchang‚Ä¶ https://t.co/JDGh4ONdGV"
862520420284731392,2017-05-11 04:11:07,"RT @defcon: Today's featured #defcon #contest: #coindroids! blockchain-based, RPG-style #cryptocurrency game - learn more at https://t.co/n‚Ä¶"
862448251991191553,2017-05-10 23:24:21,"RT @SatoshiLite: First SegWit transaction on Litecoin!

https://t.co/QTJAMDlC8s"
862339391141838853,2017-05-10 16:11:46,"ShapeShift's newest product, Prism, is coming soon. https://t.co/YsF09hzwJy"
862153367967211520,2017-05-10 03:52:35,RT @Melt_Dem: ok. real news. bitcoin is üî•üöÄüåôüë©üèº‚Äçüíª- thanks @CoinCap_io @ShapeShift_io  for making it beautiful too! https://t.co/Zle8W4K0wX
862140921793716224,2017-05-10 03:03:08,"RT @brettarussell: In 2014 @MITBitcoinClub gave 4,500 undergrads $100 in #bitcoin (btc@225 ea) = $750 today-how many bought more? sold? los‚Ä¶"
862052152063209472,2017-05-09 21:10:23,RT @TraceMayer: #Bitcoin is a black hole on world's balance sheet &amp; constantly gaining economic mass. Credit contraction cleanse! https://t‚Ä¶
861957580519813121,2017-05-09 14:54:36,Congrats to both of you :) https://t.co/aqNAKitCS6
861951109979680768,2017-05-09 14:28:53,"Bitcoin soars above $1,700 as market cap adds $1 billion in just 24 hours https://t.co/aeMbFG8Nwf #finance #FiatSucks #EndTheFed"
861773177747361794,2017-05-09 02:41:51,I agree with about 4/5ths of this ;) ‚ÄúWhy The Bitcoin Dominance Index Is Deceiving‚Äù by @jimmysong https://t.co/MPPaBVLNgX
861754500087992320,2017-05-09 01:27:38,RT @coindesk: Delaware Introduces Bill to Legally Recognize Blockchain Stocks https://t.co/tUW0FdchD4 https://t.co/lM79yuxAdS
861592373930930177,2017-05-08 14:43:24,"ShapeShift processed over 11,000 customer orders for digital assets in the past 24 hours. https://t.co/UPChibh1H8 #NoAccountNeeded"
861581103169253377,2017-05-08 13:58:37,$3 billion exchange volume in the crypto markets over the past 24 hours. https://t.co/2JZAgbHdE1 #MotherOfGod #bitcoin #ethereum #blockchain
861580777989001217,2017-05-08 13:57:19,Token Summit is going to be great :) https://t.co/TcB9f7CVpE
861579229275856897,2017-05-08 13:51:10,"RT @MoneroMonitor: Ep. 4 is live! ""Cryptocurrencies and capitalism, a shape-shifting landscape"" w/ @ErikVoorhees of @ShapeShift_io #XMR htt‚Ä¶"
860991312098545664,2017-05-06 22:54:59,"RT @ARKblockchain: Spent last 30 mins tinkering w/ @PurseIO &amp; placed an order. Smooth integration w/ @amazon @coinbase @ShapeShift_io, soli‚Ä¶"
860991183098568704,2017-05-06 22:54:29,@CryptoQuant @barrysilbert @coinbase @bitfinex @Poloniex @krakenfx @GenesisTrading @ShapeShift_io Yeah ehem... you‚Ä¶ https://t.co/8sVZlccuOu
860873165832146946,2017-05-06 15:05:31,"RT @ARKblockchain: #Bitcoin, #Ethereum, ICOs &amp; market cap of #cryptoassets breaking $40B. We covered it all on @BloombergCA. Far out! https‚Ä¶"
860674403826376704,2017-05-06 01:55:43,RT @ShapeShift_io: Update: Ethereum and all tokens are back online at ShapeShift. We'll keep monitoring. Thank you customers for your patie‚Ä¶
860674335794749441,2017-05-06 01:55:26,@nathanhawkeye @ShapeShift_io Please contact support and we will take care of you.
860302996718186501,2017-05-05 01:19:52,"RT @chamath: Reiterating my belief about $BTC. It's the ultimate insurance policy against autocracy, currency curbs and other forms of valu‚Ä¶"
860180998314655744,2017-05-04 17:15:06,@thesiriusreport @maxkeiser Well now you're changing the goal posts. The truth is you can buy anything on earth wit‚Ä¶ https://t.co/m9nmq6k9no
860151399073689601,2017-05-04 15:17:29,"@thesiriusreport @maxkeiser United States of America. Is 12,000 restaurants enough? https://t.co/cUr2B3BlFr"
860140957991407616,2017-05-04 14:35:59,"@thesiriusreport @maxkeiser Fiat currencies is a diverse set. USD, EUR and other majors, you're right. But most fia‚Ä¶ https://t.co/5iVdQMv7SF"
860139596721553408,2017-05-04 14:30:35,"@thesiriusreport @maxkeiser Bitcoin is bigger than most fiat currencies on Earth, already. I'd say it's beyond ""relevant."""
860138918066499585,2017-05-04 14:27:53,"@thesiriusreport @maxkeiser You could say that first part about any traded asset, including real estate, gold, corn‚Ä¶ https://t.co/wueWlLaS6T"
860136598368903168,2017-05-04 14:18:40,$1600 Bitcoin price hit at GDAX https://t.co/rDk0BVmevH #finance #forex #blockchain #NobodyHasEverLostMoneyHodlingBitcoin
860134927987335169,2017-05-04 14:12:02,@thesiriusreport @maxkeiser Bitcoin is the opposite of fiat. Fiat means value by decree of an authority. Bitcoin va‚Ä¶ https://t.co/WrRtiav348
860127229287837696,2017-05-04 13:41:26,"In other news, the US Dollar has fallen to 0.000637 Bitcoins today. It has collapsed 99.999% against the cryptocurrency since 2009. #finance"
859951983985295362,2017-05-04 02:05:04,Litecoin hits $1 billion market cap and quarter billion dollars in 24 hr exchange volume on news of CoinBase support https://t.co/2JZAgbHdE1
859862115796082690,2017-05-03 20:07:58,"RT @brucefenton: It took 7 years for the value of all cryptocurrency to hit $10 billion, another year to hit $20 billion &amp; 3 more months to‚Ä¶"
859563606698057728,2017-05-03 00:21:48,"RT @ShapeShift_io: ShapeShift has added $Waves and $Gnosis! Buy or sell with dozens of assets, no account needed: https://t.co/zr7hmPBITk h‚Ä¶"
859511095073144833,2017-05-02 20:53:08,RT @ShapeShift_io: NEW! ShapeShift has added $Gnosis to the exchange! Buy or sell $GNO with dozens of assets. No account needed: https://t.‚Ä¶
859458197123452930,2017-05-02 17:22:56,@ARKblockchain I'd like to see quantified: how much moon fuel is needed to reach escape velocity ;)
859413304812474368,2017-05-02 14:24:33,I understand BFX can have $100 premium over others due to fiat withdrawal issues. But I don't think BFX can pull entire mkt higher. #bitcoin
859412831019651072,2017-05-02 14:22:40,@ARKblockchain Eh but many days recently have been BTC green and alts green.  I'm not sure a strong correlation exi‚Ä¶ https://t.co/8wnDAKwp5M
859377830974689280,2017-05-02 12:03:36,"Bitcoin soars above $1,400 to all-time high https://t.co/x1Jti9ix59 via @Reuters"
859262227911671812,2017-05-02 04:24:14,RT @jpblincoe: Today is Monday.  What's on the agenda? #bitcoin https://t.co/ZixAZ95gFL
859187070765600773,2017-05-01 23:25:35,Over $1.5 billion in crypto asset trading volume past 24 hrs... wow/holy shit https://t.co/2JZAgbHdE1 #bitcoin #ethereum
859147322181033984,2017-05-01 20:47:38,RT @BitfuryGeorge: Segwit on LTC -&gt; great results &amp; LTC price up 200%.. Delaying segwit on BTC is costing the industry $40-$50 bln. This is‚Ä¶
858666042557685760,2017-04-30 12:55:12,"RT @TuurDemeester: Cryptocurrency is the new frontier. Hold a claim in the right location, and you have a chance at building a multi-genera‚Ä¶"
858001971688734726,2017-04-28 16:56:25,"RT @NTmoney: The top 5 VC raises in the space in the past yr: 

@BitFuryGroup: $30M
@GoVeem: $24M
@AxoniSys: $18M
@filamenthq: $15M
@ShapeS‚Ä¶"
857961585427570689,2017-04-28 14:15:56,"@JWBurgers @timpastoor @dirkhoving That number doesn't include zero-fee exchanges, btw. Skepticism is healthy, but‚Ä¶ https://t.co/ZC0izTmx3T"
857961112431714306,2017-04-28 14:14:04,"Proof of thesis: Even as Bitcoin grows fast, digital assets as a class grow faster, and each strengthens the other  https://t.co/yYQGXfqdxQ"
857947425004298241,2017-04-28 13:19:40,Crypto markets surging... $1.1 billion in exchange volume over past 24 hours. https://t.co/2JZAgbHdE1
857789788878983168,2017-04-28 02:53:17,"Great update from @jaxx_io as it becomes an even better, more compatible, more powerful wallet! https://t.co/5ERUj1JJDt #bitcoin #ethereum"
857622846683664384,2017-04-27 15:49:55,@slushcz @WhalePanda I think we agree 100% then.
857608402134073344,2017-04-27 14:52:31,"@chris_belcher_ Unfortunately I can't read code. But, I'm hesitant to automatically believe code reviewers who alre‚Ä¶ https://t.co/BFx2Gc4MwQ"
857607672325185536,2017-04-27 14:49:37,"@WhalePanda @slushcz Where is this research posted? ""Benefit of the doubt"" means not automatically assuming evil, n‚Ä¶ https://t.co/uzmZBH62Il"
857602665479639042,2017-04-27 14:29:43,"Niiiiiceeeee
 https://t.co/TcdDRThD2J  #bitcoin"
857602024325754880,2017-04-27 14:27:10,@Rubicon_X Agreed. Really bad. Glad it was found/exposed/patched.
857601637984215040,2017-04-27 14:25:38,"@mdotbit ""That"" and asicboost are bad, but don't lead me to vilify.  Blocking segwit is foolish imo, but is their o‚Ä¶ https://t.co/xSsaUhRs8I"
857601157849645056,2017-04-27 14:23:44,@octal Email recovery is fine... just not phone number. The carriers can be socially engineered easily.
857601043793936384,2017-04-27 14:23:16,@octal Better lost than used in social engineering attacks on friends and family.
857599977195020293,2017-04-27 14:19:02,Security tip: Never use a phone number as an account recovery tool. Remove number from FB/Twitter/etc.
857599164020076545,2017-04-27 14:15:48,"Ill give Bitmain benefit of the doubt that AntBleed was a non-malicious feature. Regardless: HUGE security problem, shouldn't have been done"
857297895204278281,2017-04-26 18:18:40,"@taidi_ji I'm guessing around 40%, and maybe another 40% as Alt to Eth."
857296689241235456,2017-04-26 18:13:53,"""Alt to Alt"" trades at ShapeShift have grown from ~2% to ~25% of our business. Indicator of a diversifying ecosystem https://t.co/YMkAfWgAdn"
857293977825009665,2017-04-26 18:03:06,Spotify acquires Mediachain to develop blockchain technology that matches royalties with rightsholders https://t.co/7QEGXLjpIt
857287041217945601,2017-04-26 17:35:32,"Congratulations to Litecoin for adopting/activating SegWit! Now your turn, Bitcoin! Do it! https://t.co/uHb62ZxeNZ @litecoin @SatoshiLite"
857259760130936834,2017-04-26 15:47:08,‚Äúmaybe we can just start the next chapter by treating each other with a bit more respect‚Äù by @VinnyLingham https://t.co/y8QbSjCAFn
857250848661016579,2017-04-26 15:11:43,40 more blocks until Litecoin activates SegWit!!! https://t.co/Vc5pXO9Fh9
857250370854285313,2017-04-26 15:09:50,Bitcoin marches towards all-time high as SEC gives potential second shot to Winklevoss ETF https://t.co/DipOKgw0ry
857239859962015744,2017-04-26 14:28:04,"RT @jdsmithies: @swilliamism this article by @ErikVoorhees was instrumental in me ""getting it"" when it comes to bitcoin https://t.co/3p18m4‚Ä¶"
857239768652034048,2017-04-26 14:27:42,"@ageralis 10x in four years... absolutely. Not necessarily due to any one asset growing 10x, but the branching effe‚Ä¶ https://t.co/tzoipw87sn"
857239320071196672,2017-04-26 14:25:55,Golem now on Exodus (awesome multi-token desktop wallet) https://t.co/atKZeBBTWh  @exodus_io @golemproject
856657641006931973,2017-04-24 23:54:32,@tobdea I agree with small bubble. I disagree Bitcoin will comprise over 80% of all digital asset value.
856657328275378176,2017-04-24 23:53:17,@pjkershawnz $300 billion is more than $500m ;)  The more you know...
856657087945994244,2017-04-24 23:52:20,"@ELKasstawi @tobdea Yet Google, Facebook, and Amazon all co-exist. Just as many blockchain platforms/apps will co-exist."
856656821188251648,2017-04-24 23:51:16,"""This is why I Bitcoin"" https://t.co/un4XV97BG2 #finance #debt #unsustainable #government #bondbubble"
856601047321780227,2017-04-24 20:09:39,"@tobdea No, only 68% now. See Dominance Index at the top: https://t.co/EBzjWyuUbu"
856600737907978240,2017-04-24 20:08:25,"@richcollins Bitcoin, used to send hundreds of millions of dollars all over the world instead of expensive and slow‚Ä¶ https://t.co/RyIQw4Sv0j"
856526199262240768,2017-04-24 15:12:14,Tokens as an asset class have surpassed $30 billion. I predict over $300 billion within 4 years. https://t.co/BNqBzdUfKk #bitcoin #ethereum
856525418890964992,2017-04-24 15:09:07,RT @BitfuryGeorge: LTC Segwit at 75% -&gt; price 4x ; BTC Segwit at 75% -&gt; delta of $60 bln in MC gain? &amp; that capital would do so much to fur‚Ä¶
856519188529258496,2017-04-24 14:44:22,"@Lord_Kebo @IamNomad ""Deflation is generally known to slow growth.""  &lt;---- Well, if you measure growth as GDP (ie -‚Ä¶ https://t.co/qJqGj7m7J4"
856509819087441920,2017-04-24 14:07:08,@Lord_Kebo @IamNomad Then why did the US economy grow much faster back before fiat existed and inflation didn't occur? (1776-1913)
856507213673791488,2017-04-24 13:56:47,@Lord_Kebo @IamNomad How would that be bad for the economy?
856507048716009472,2017-04-24 13:56:08,SegWit is going to activate on Litecoin in a few days... https://t.co/Vc5pXO9Fh9
856478545727672320,2017-04-24 12:02:52,Bitcoin is (again) Outperforming Every Fiat Currency So Far in 2017 https://t.co/Vavwk9unOM
855912699657695233,2017-04-22 22:34:24,U.S. venture capital firm raises $10 million in six-hour token sale https://t.co/ULXJam4yUp #bitcoin #TokensAreComing
855544207305584640,2017-04-21 22:10:08,RT @bitcoinvsfiat: Trezor is like having a Swiss-Bank Account in your Pocket #TREZOR10k  @BitcoinTrezor https://t.co/SD7JvPXo6Q
855204711594688512,2017-04-20 23:41:06,"Bitcoin to Gain Legal Status in India, Reports Local Media https://t.co/2YnXnku8tm via @CryptoCoinsNews"
855201482773286913,2017-04-20 23:28:17,Congrats to @EverdreamSoft on release of Spells of Genesis today! Buy/sell BitCrystals at https://t.co/UPChibh1H8 https://t.co/ktG1QQjqDX
855066499115081729,2017-04-20 14:31:54,"@dangermouse117 @zooko Yeah ZEC is not correct. It is up by any reasonable measure. It's first few days of trading,‚Ä¶ https://t.co/MmHJlxnL53"
855064802787459077,2017-04-20 14:25:09,Thanks Willy Woo! https://t.co/3wniYZ3qtF
854891416568426496,2017-04-20 02:56:11,Great chart of digital asset performance. I bet startups (incl lifeforms themselves) in most sectors demonstrate a‚Ä¶ https://t.co/ixTbJ9AsHV
854890916162809856,2017-04-20 02:54:12,@dangermouse117 @theonevortex Thanks! Very cool. How many coins over 500 days old are above a 10x price multiplier?
854890290649456642,2017-04-20 02:51:43,Fun pic from five years ago today. @CharlieShrem and me at a generic tech startup day. Bitcoin price = $5.14 https://t.co/smq6rey6HO
854701901111328769,2017-04-19 14:23:07,Denver flyers can now use bitcoin when parking at ParkDIA https://t.co/NRM6aalXuG via @denverpost
854396832507719683,2017-04-18 18:10:53,Factom Closes $8M Round to Bring Blockchain to the Mortgage Industry https://t.co/HeZi8PwP7f via @AustinInno
854392455009103872,2017-04-18 17:53:29,Token Summit in NYC May 24-25th.  https://t.co/ZtjOzHFsob  #bitcoin #ethereum #blockchain
854304676220678148,2017-04-18 12:04:41,RT @cnLedger: Short summary of F2Pool's announcement about supporting Segwit on #Bitcoin https://t.co/QSn1WiO9Kz
854160198444961792,2017-04-18 02:30:35,@BTCarchitect @dangermouse117 Easier to triple 2.5k than to double 2.5m  ;)
854158883362922497,2017-04-18 02:25:21,@SouperNerd thanks!
854157960251047937,2017-04-18 02:21:41,RT @dangermouse117: Active users of crypto over time. 50% growth pa. My estimates based on Google Trends was 100% pa for BTC (passive hodle‚Ä¶
854157758643544064,2017-04-18 02:20:53,"Willy Woo... let's see an update to your article, very curious what it looks like now: https://t.co/Aps4tynBYb #bitcoin #blockchain"
854157427318468608,2017-04-18 02:19:34,"@Coinosphere @nvk How is SegWit going to pass? It doesn't seem anywhere close, other than on Litecoin."
854157327204839425,2017-04-18 02:19:10,@MediumSqueeze @nvk Will blocks be full if blocksize is increased to 2MB?
854147950771142657,2017-04-18 01:41:55,"@nvk If 1MB was okay four years ago because laptops could run full nodes, so too should 2MB today for the same reason."
853967969671684096,2017-04-17 13:46:44,"RT @misterdna: I just taped a Bitcoin paper wallet to a frisbee and threw it back &amp; forth with friends for 10 minutes.

Technically 50 taxa‚Ä¶"
853064942282567680,2017-04-15 01:58:26,"Apple Accepts Zcash as Legitimate Cryptocurrency, Now Available on iOS https://t.co/uyRbb6OASC via @Cointelegraph"
852969993612402689,2017-04-14 19:41:08,"‚ÄúHow to add SoG cards, Rarepepe and Counterparty assets to your Unity game‚Äù by Mandel duck https://t.co/WbYlXjJN2I #bitcoin #blockchain"
852969092566753280,2017-04-14 19:37:33,Bitcoin is now bigger than the majority of government currencies. Free-market money will continue outcompeting fiat https://t.co/hxIfv08qSz
852889069466132485,2017-04-14 14:19:34,"Good post from Greg Maxwell on BIP148  https://t.co/qRXfoMJafa (and please, miners and users, let's make SegWit happen)"
852618208578326528,2017-04-13 20:23:16,"@cambone @Bulldozer0 Users shouldn't always equal full node operators. Most users will never, and should never, run full nodes."
852545031600734208,2017-04-13 15:32:29,Bitcoin is more popular in the developing world than you think https://t.co/OU6ApTskDq
852225285588041728,2017-04-12 18:21:56,"RT @lopp: Litecoin price (red) vs SegWit signaling (blue.) Correlation != causation, but miners should consider that this may be an economi‚Ä¶"
852198648230424576,2017-04-12 16:36:05,"RT @SatoshiLite: We have reached 75% SegWit signaling in the last 24hrs!

Activation period 6 starts in 2 days. We then need &gt;=75% for 2 we‚Ä¶"
852198456236146688,2017-04-12 16:35:19,"Purse: We're caught up in a shit storm, ‚ÄúExtension Block Story‚Äù by @2drewlee https://t.co/xA9ysn0fIt #bitcoin"
852167144813072388,2017-04-12 14:30:54,"@unorigmoniker Hashes are added to the blockchain, not plaintext or anything that could be operable software."
852165455502561280,2017-04-12 14:24:11,Microsoft Office Can Now Verify Docs on the Bitcoin Blockchain https://t.co/Vn7YEMMxwJ
852161492287926273,2017-04-12 14:08:26,"Bitcoin value rises over $1 billion as Japan, Russia move to legitimize cryptocurrency https://t.co/M1f8hbdWMK"
852153665385353218,2017-04-12 13:37:20,Very excited to see SegWit increasingly likely to activate on Litecoin. https://t.co/37ioGVT8mO  Buy or sell LTC at https://t.co/UPChibh1H8
851987847389351937,2017-04-12 02:38:26,"RT @ShapeShift_io: Did you know that ShapeShift has added $Melon, $Iconomi and $Golem to the exchange? Now supporting 40+ assets: https://t‚Ä¶"
851496988852068352,2017-04-10 18:07:56,RT @bitcoinkeepkey: Video: Using @ShapeShift_io on your KeepKey https://t.co/4LUGqBytfl https://t.co/9PPsmw2Ftt
850924046581673984,2017-04-09 04:11:16,"The first investor in Snapchat thinks bitcoin could realistically be worth $500,000 by 2030 https://t.co/GNk5ZCMyi3 via @YahooFinance"
850922874877693957,2017-04-09 04:06:37,"RT @Snowden: NSA just lost control of its Top Secret arsenal of digital weapons; hackers leaked it.
1) https://t.co/zleVbyBtE3
2) https://t‚Ä¶"
850782237310296065,2017-04-08 18:47:46,Cambridge University: Cryptocurrency Use Seeing ‚ÄòSignificant Growth‚Äô https://t.co/7Y3egR34qa
850437732795023360,2017-04-07 19:58:50,"RT @ShapeShift_io: It's official! ShapeShift now supports #Melon and #Iconomi! Buy/sell with dozens of assets, no account needed: https://t‚Ä¶"
850087575876505601,2017-04-06 20:47:26,@mahon_robert @WhalePanda Neither right nor wrong come from politicians' laws.
850087249698074625,2017-04-06 20:46:08,"So has Bitmain been using ASICBOOST or not? That seems to be a matter of fact that can be determined, and isn't clear yet."
850073741686190080,2017-04-06 19:52:28,"The IRS took millions from innocent people because of how they managed their bank accounts, inspector general finds https://t.co/VAKX88Ivwb"
849998643629371394,2017-04-06 14:54:03,"@mahon_robert @WhalePanda Nothing wrong with ""building better rig."" That's great. But this isn't ""war"" it is busine‚Ä¶ https://t.co/FWqOFFROzq"
849995459322163200,2017-04-06 14:41:24,@mahon_robert @WhalePanda Playing to win is fine. Deception/lies/fraud and other similar behaviors are not legitima‚Ä¶ https://t.co/7Tbtv8Vgbe
849995124616704000,2017-04-06 14:40:04,Cheers to that https://t.co/kmv7OhSOJN
849991684083642368,2017-04-06 14:26:24,@mahon_robert @WhalePanda Exploiting the advantage isn't necessarily wrong. If SegWit was blocked primarily to pres‚Ä¶ https://t.co/BnmrCVzOWh
849990701509160960,2017-04-06 14:22:29,"@RoadStress @rogerkver @jgarzik @gavinandresen @Falkvinge Regardless of Bitmain's motivations, many other people st‚Ä¶ https://t.co/S26LXHcySC"
849987167304732675,2017-04-06 14:08:27,"‚ÄúASICBoost, the reason why Bitmain blocked Segwit.‚Äù by @WhalePanda https://t.co/V1nQcm7fXJ"
849284450051608577,2017-04-04 15:36:06,@timoncc @dieguito @NickSzabo4 @adam3us @aantonop @johnsonlau01 @SDLerner @brucefenton Those who are against SegWit‚Ä¶ https://t.co/Ab6Qb9KUbo
849283974975369218,2017-04-04 15:34:13,"@nigeljoy @ShapeShift_io Because ShapeShift is giving you a specific rate. If you did a $1m order for Dogecoin, for‚Ä¶ https://t.co/32MT3WSoMY"
849283319732809728,2017-04-04 15:31:37,"Bitfinex Makes Good on Debt, 100% of BFX Tokens Redeemed https://t.co/AuBZxR3s7P via @BTCTN"
849258498005315584,2017-04-04 13:52:59,‚ÄúReady for Liftoff‚Äù Extension Blocks as softfork for scaling by @2drewlee of @purseIO https://t.co/i7kYml6gOB
849074486498480128,2017-04-04 01:41:47,@B424242 @ShapeShift_io It's online now!
849072404731232257,2017-04-04 01:33:30,Video review: KeepKey Hardware Wallet w/ ShapeShift integration https://t.co/zrI17KqVML #bitcoin #ethereum #dash #litecoin
849044659217235969,2017-04-03 23:43:15,Bitcoin Exchange Bitfinex Buys Back All Remaining 'Hack Credit' Tokens https://t.co/634qJHYVq7 via @CoinDesk
849044606134226944,2017-04-03 23:43:03,Developer Proposes Hybrid SegWit Solution to Bitcoin's Block Size Debate https://t.co/ZkkebovkYI via @CoinDesk
848990629086584832,2017-04-03 20:08:34,"@Btboy1234567 You're down because you sold them and bailed, which is fine, but take responsibility for your decision."
848985882216550400,2017-04-03 19:49:42,"Fucking Amazing: Bitfinex, by tokenizing debt, has repaid 100% of user loses. Beautiful example of free markets. https://t.co/VO0TA1EBh8"
848966830475665409,2017-04-03 18:34:00,"@LarryBitcoin @Beautyon_ @AnselLindner ...except that's where much of the conversation happens. Do email lists, sla‚Ä¶ https://t.co/ikFphW5FAu"
848942328953925632,2017-04-03 16:56:38,"@LarryBitcoin @Beautyon_ @AnselLindner lol you brought up censorship, not me. I was talking about scaling and segwit."
848936770016292864,2017-04-03 16:34:33,"@Beautyon_ @LarryBitcoin @AnselLindner I respect property rights, and I am against the mod policy. But the mods hav‚Ä¶ https://t.co/yifDONwlWL"
848936605910007808,2017-04-03 16:33:53,@LarryBitcoin @AnselLindner I don't point fingers at people. It's not helpful. I'd rather discuss ideas and plans.‚Ä¶ https://t.co/Z9bKIYQZpW
848929809350758401,2017-04-03 16:06:53,"@Beautyon_ @LarryBitcoin @AnselLindner Haven't moved any goalposts. There has been censorship on /r/bitcoin, to the‚Ä¶ https://t.co/fPGDBDyQ6f"
848929347633336322,2017-04-03 16:05:03,"@LarryBitcoin @AnselLindner I didn't say /r/bitcoin doesn't have the ""right"" to censor itself."
848926442587127808,2017-04-03 15:53:30,"@LarryBitcoin @AnselLindner You can call it moderation if that makes you comfortable. In reality, groupthink has se‚Ä¶ https://t.co/woyfcfPVIA"
848924930540527617,2017-04-03 15:47:30,"@AnselLindner @ProfeLuke No not ""but anyway."" That is called two independent relationships, and almost any business‚Ä¶ https://t.co/9KwVGYnE4A"
848924424493563904,2017-04-03 15:45:29,@LarryBitcoin @taidi_ji @brucefenton I made one just for you. https://t.co/ZBHxNNKdgw  And in any response when ask‚Ä¶ https://t.co/vYvMEmdyf2
848923955700391938,2017-04-03 15:43:37,"SegWit should be activated, the sooner the better, and I'll support any plan that moves it forward."
848923444699959298,2017-04-03 15:41:36,"@AnselLindner @ProfeLuke There is no ""connection to Bitmain,"" you made that up."
848918786141020162,2017-04-03 15:23:05,"@MediumSqueeze @adam3us @DanDarkPill @LaurentMT @SDLerner Do you have data to support that, or just guessing to fit your narrative?"
848918568045617156,2017-04-03 15:22:13,"@AnselLindner @ProfeLuke You said Jihan is a partner/investor. That is factually inaccurate, so please retract your‚Ä¶ https://t.co/qhV5oXdxt1"
848917224614187008,2017-04-03 15:16:53,"@adam3us @DanDarkPill @LaurentMT @SDLerner You really think that? There are 31k subscribers to /r/btc, and many big‚Ä¶ https://t.co/KjlsImzQew"
848916785923579906,2017-04-03 15:15:08,"@LarryBitcoin @brucefenton With which point of mine, specifically, do you take issue?"
848916516645064710,2017-04-03 15:14:04,@taidi_ji @LarryBitcoin @brucefenton Feel free to point me to one and I'll happily reply.
848915401950015488,2017-04-03 15:09:38,"@taidi_ji @LarryBitcoin @brucefenton Apologies if I missed a tweet, I respond to the ones I see. Which one did I miss?"
848914383447236608,2017-04-03 15:05:35,@LarryBitcoin @brucefenton Bitcoin needs more people insulting each other. Thanks for your contributions Lawrence.
848913537577742338,2017-04-03 15:02:14,"@AnselLindner @ProfeLuke I was asked to be an advisor to MGT, haven't talked with them in months. What does that ha‚Ä¶ https://t.co/SrtLlFxHkt"
848911852058927105,2017-04-03 14:55:32,"@Excellion @SDLerner @LaurentMT @adam3us @DanDarkPill Oh look, Samson Mow is insulting people in the internet again."
848911626027839493,2017-04-03 14:54:38,"@AnselLindner @ProfeLuke There is no ""solution"" that is not ""political."" Explain how UASF, or even maintaining stat‚Ä¶ https://t.co/HkoXHT9wyA"
848911301392859137,2017-04-03 14:53:20,"@AnselLindner @ProfeLuke Jihan is not a partner or investor. Also, I'm guessing you've never actually spoken with h‚Ä¶ https://t.co/O4xib2sNHW"
848894306949750784,2017-04-03 13:45:49,"@AnselLindner @ProfeLuke Who is ""they""?  Certainly not me and Bruce."
848717191067422720,2017-04-03 02:02:01,@prestonjbyrne @adam3us @dieguito @aantonop @johnsonlau01 @SDLerner @brucefenton Define micropayment.
848713765059166210,2017-04-03 01:48:24,"@adam3us @dieguito @aantonop @johnsonlau01 @SDLerner @brucefenton How is SegWit2MB ""bikeshedding?"" That term refers‚Ä¶ https://t.co/Gv5xAypdLw"
848713221469089792,2017-04-03 01:46:14,"RT @billbarhydt: While I'm hopeful for a UASF, I think @aantonop and @ErikVoorhees are correct.  We need to break the impasse this year. ht‚Ä¶"
848711054993608708,2017-04-03 01:37:38,"@alistairmilne If you mean Roger, then yes. I've also received investment from at least one Core contributor... I w‚Ä¶ https://t.co/qPxcbQVnlg"
848610909132136448,2017-04-02 18:59:41,"@meeDamian You can respond to things thoughtfully, or you can call them bullshit on twitter. ""Let's leave politics‚Ä¶ https://t.co/kONF48SFKZ"
848603594500841473,2017-04-02 18:30:37,Money and State  |  Thoughts on SegWit2MB https://t.co/mOYEHAHiRq   #bitcoin #blockchain #segwit
848264183149973504,2017-04-01 20:01:55,"@LaurentMT @SDLerner By ""some people"" you mean a large portion of the community... a portion that is increasingly l‚Ä¶ https://t.co/8Gxs3iu3Ja"
847984401413754880,2017-04-01 01:30:10,RT @FTPartners: See all of this week's #FinTech deal activity: 19 Financing and 8 M&amp;A transactions https://t.co/qSB36pTHhd https://t.co/Pbj‚Ä¶
847958258950311937,2017-03-31 23:46:17,RT @SDLerner: [bitcoin-dev] Segwit2Mb - combined soft/hard fork - Request For Comments -&gt; https://t.co/nUtEotk4bL
847867310140530689,2017-03-31 17:44:54,"@Beautyon_ @keonne Right and wrong usually aren't nuanced, but circumstances are. Judging the former before underst‚Ä¶ https://t.co/DvLA4EdDyc"
847864544382910466,2017-03-31 17:33:54,@Beautyon_ @keonne Thank you for the vote of confidence in that post. If you ever have genuine questions not meant‚Ä¶ https://t.co/OiLboY59rJ
847864273992904704,2017-03-31 17:32:50,"@Beautyon_ @keonne ""Those are your standards today; who knows what they will be at Series C?"" and other comments ar‚Ä¶ https://t.co/PxekKdqofx"
847860959976853504,2017-03-31 17:19:40,"@Beautyon_ @keonne You have little idea what I'm up to, and I see little from you but the lobbing of insults, insin‚Ä¶ https://t.co/vQGBPy1oue"
847857789020106752,2017-03-31 17:07:03,"@Beautyon_ @keonne My law is peace, honesty, and production, in that order."
847857417576689664,2017-03-31 17:05:35,"@Beautyon_ @keonne A company that is spying for the State is one I would condemn, and do."
847855737913176067,2017-03-31 16:58:54,@Beautyon_ @keonne It depends on the facts. That is my standard.
847855503959097346,2017-03-31 16:57:59,"@Beautyon_ @MrHodl @keonne @fonebtc No, there is right and wrong. One thing that is wrong, in my opinion, is judgin‚Ä¶ https://t.co/fIgOEV19IJ"
847854488149008384,2017-03-31 16:53:57,"@Beautyon_ @keonne Perhaps you guys have lower standards of truth, but if I published something factually wrong, I‚Ä¶ https://t.co/dc0VJ2Up2h"
847853865286479872,2017-03-31 16:51:28,@keonne Please do. And please get facts before spreading misinformation. There is enough of it online already.
847853649749573632,2017-03-31 16:50:37,"@Beautyon_ @MrHodl @keonne @fonebtc Depends on the company, the people involved, and what they do."
847851157573836800,2017-03-31 16:40:42,"@Beautyon_ @MrHodl @keonne @fonebtc I already answered that. No. I don't know them, or what they do, well enough to‚Ä¶ https://t.co/ZjRBnLQaGV"
847847527944785920,2017-03-31 16:26:17,"@keonne Maybe you should delete your tweet since it is factually wrong, if you care about that."
847845526070591488,2017-03-31 16:18:20,@Beautyon_ @MrHodl @keonne @fonebtc What's the question dude?
847845315474587648,2017-03-31 16:17:30,@keonne @Beautyon_ @MrHodl @fonebtc Absolutely I believe that. Why would you even have a question like that?
847837341209309184,2017-03-31 15:45:48,@Beautyon_ @MrHodl @keonne @fonebtc I understand now that a straightforward question won't be arriving. I'm not goi‚Ä¶ https://t.co/mhjdMif8ob
847836165512278018,2017-03-31 15:41:08,@Beautyon_ @MrHodl @keonne @fonebtc Stop speaking in obnoxious roundabout ways. You sound like a politician. I'm an‚Ä¶ https://t.co/a2lPWZ70nA
847835875744591879,2017-03-31 15:39:59,@davef__ @fonebtc @keonne @Beautyon_ @MrHodl How did SD force BTC network to cover cost of anything? SD paid more f‚Ä¶ https://t.co/2YSNobkWLl
847835407442219009,2017-03-31 15:38:07,@keonne @Th3Acist @Beautyon_ @MrHodl @fonebtc Do you have any idea how many people and organizations Michael has ad‚Ä¶ https://t.co/vBX7ofLz7I
847834981728759809,2017-03-31 15:36:26,@Beautyon_ @MrHodl @keonne @fonebtc You mean my principle of advocating free market money in order to replace the f‚Ä¶ https://t.co/84KRazPnGS
847834393309794304,2017-03-31 15:34:06,@fonebtc @keonne @Beautyon_ @MrHodl What does that picture have to do with me?
847832853081706496,2017-03-31 15:27:58,"@fonebtc @Beautyon_ @MrHodl @keonne For the cerebrally challenged, everything is a honey pot."
847832648152166400,2017-03-31 15:27:09,"@Beautyon_ @MrHodl @keonne @fonebtc So you want me to comment and have a ""position"" on a group I don't know about, got it."
847831446408613889,2017-03-31 15:22:23,@fonebtc @Beautyon_ @MrHodl @keonne ShapeShift makes everything public to everyone. Would be horrible tool for mone‚Ä¶ https://t.co/lzUrOyd704
847822814304489473,2017-03-31 14:48:05,"@MrHodl @keonne @fonebtc I didn't, but I'm sure you won't retract your false assertion."
847822691671449600,2017-03-31 14:47:36,@Beautyon_ @MrHodl @keonne @fonebtc I have no idea who they are or what they do.
847818690825519104,2017-03-31 14:31:42,@Beautyon_ @MrHodl @keonne @fonebtc You guys have no idea what you're talking about. ShapeShift is not a member of‚Ä¶ https://t.co/0W9wDiqoFF
847817380461936642,2017-03-31 14:26:29,@creiddouthat @pbartstephens @ShapeShift_io @CoinCap_io CoinCap will soon be getting the attention it deserves :)
847817140690460672,2017-03-31 14:25:32,"@cryptotraveler @rogerkver Let's avoid superficial insults. What's your issue, precisely?"
847601907359129601,2017-03-31 00:10:17,@min77251400 Roger's investment in those companys is microscopic fraction of what he has invested in bitcoin itself. Work on your logic.
847282544856842241,2017-03-30 03:01:15,@francispouliot_ @ShapeShift_io Go for it! No new API for basic ShapeShift any time soon.
847166864132206592,2017-03-29 19:21:34,"@twobitidiot @msantoriESQ @ShapeShift_io ShapeShift is Swiss Ryan, you should know that as an investor ;)"
847131048634920961,2017-03-29 16:59:15,Reuters: Digital asset exchange ShapeShift raises $10.4 million in funding https://t.co/qCQPHi5acC @Reuters #bitcoin #ethereum #blockchain
847129153895849984,2017-03-29 16:51:43,Berlin-based Earlybird Venture Capital leads ShapeShift Series A https://t.co/PQqJ4NU00o @EarlybirdVC @ShapeShift_io #blockchain #bitcoin
847113614402179072,2017-03-29 15:49:58,"@richcollins @ShapeShift_io 99.9999% of global wealth is still in the legacy financial system. We're changing that, but it's a process."
847101582785302528,2017-03-29 15:02:10,ShapeShift Raises $10.4 Million Series A https://t.co/NCNM1KK8lO #blockchain #finance #bitcoin #ethereum #VentureCapital @shapeshift_io
846909492352761858,2017-03-29 02:18:52,Ethereum style smart contracts are coming to Bitcoin in June https://t.co/ciB0FN4jDn
846460950727213056,2017-03-27 20:36:31,Dear Ross Ulbricht  | Jeffrey A. Tucker https://t.co/1NWlnzQVSc via @feeonline #FightForLiberty
846436658065133572,2017-03-27 18:59:59,@agent_scruples That'd be superior to the status quo for sure
846434285435457536,2017-03-27 18:50:34,"@agent_scruples @eggsby Property is good, and government is its antithesis. I think you're confusing defensive force with offensive coercion"
846431279818182658,2017-03-27 18:38:37,@C1aranMurray So it's a free education that you have to pay for?
846430866381422593,2017-03-27 18:36:59,@eggsby @agent_scruples Government is nothing if not coercive. All it does it does by violence and threats.
846430524235304961,2017-03-27 18:35:37,"@agent_scruples Well I am not assigning or agreeing to citizenship for my daughter. Yet, she still has it. So it's a moot point."
846429776646754304,2017-03-27 18:32:39,"@C1aranMurray Do you mean you got government-sponsored loans? You owe money on those loans, not taxes."
846378651268591617,2017-03-27 15:09:30,@agent_scruples @eggsby And $800 billion per year in war...
846375872315707392,2017-03-27 14:58:27,"@eggsby @agent_scruples That's the myth that some people believe. ""Just run for office!""  I'm not going to waste life coercing people."
846375627871735809,2017-03-27 14:57:29,@agent_scruples Kinda like serfs under a king?
846375437982973952,2017-03-27 14:56:43,"@agent_scruples @eggsby I paid for the computers I use. And anything else I want to use, I'm happy to pay for (and should pay for)."
846375149943341056,2017-03-27 14:55:35,@eggsby @agent_scruples Civilization works mostly through markets and voluntary interaction. Government prevents and perverts civil society.
846374903267905536,2017-03-27 14:54:36,"@agent_scruples As a parent, I don't believe I have the right to assign subservience to my child. And as an adult, I don't consent."
846374453495975937,2017-03-27 14:52:49,"@agent_scruples So the US Federal Government owns all the soil now, too?  I was under the impression private property existed in America?"
846371505382535168,2017-03-27 14:41:06,@agent_scruples And that makes a valid contract with me because.... magical fairy dust?
846371295809994752,2017-03-27 14:40:16,"@agent_scruples I don't expect the government to protect me. In fact, the US gov itself is far more dangerous to me than Russia."
846369919117770757,2017-03-27 14:34:48,@agent_scruples I didn't realize I could agree to legally binding relationships when I was born.
846366374100422656,2017-03-27 14:20:42,"@agent_scruples I don't use any gov program, other than roads, willingly. I'd be happy to pay for roads. Everything else is stolen from me."
846365956913971200,2017-03-27 14:19:03,"One of my favorite crypto market commentators, Willy Woo. ""Woo‚Äôs Law of Bitcoin user growth"" https://t.co/gfZQwIQ29h @dangermouse117"
846364375644585984,2017-03-27 14:12:46,"@agent_scruples Then they'll steal my property by force, and probably imprison me. Forced to buy it = not legitimate revenue."
846363163025182721,2017-03-27 14:07:57,@KapilGuptaMD I think it sucks the blood of the everyone.
846362956220846081,2017-03-27 14:07:08,"@agent_scruples And if I don't want to use their ""resources""?"
846362806798749696,2017-03-27 14:06:32,@CrowdWhale You're the one putting them in office!?  Shame!
846362566880321536,2017-03-27 14:05:35,"The entire US corporate tax could be abolished, and government would need to shrink down to 2003 size. Not exactly anarchy back then."
846360293517201413,2017-03-27 13:56:33,Taxes cannot be said to be revenue for the government. Revenue is earned.
846024880822910977,2017-03-26 15:43:44,@avsa Or maybe not working because they programed one ;)
846024503012577281,2017-03-26 15:42:14,"@slushcz The problem is that the definition of ""micro"" keeps rising. Other chains/coins will fill that void, however big it grows."
845400529429704708,2017-03-24 22:22:47,@Excellion Sounds great to me
844920696157429760,2017-03-23 14:36:06,Bats Exchange Objects to SEC‚Äôs Denial of Winklevoss Bitcoin ETF https://t.co/XxlRncBuli via @WSJ
844567598494863362,2017-03-22 15:13:01,"@chris_belcher_ By ""pumping"" I suppose you mean, ""stating factually what the market is doing?"""
844563798811983875,2017-03-22 14:57:55,"Anyone get the feeling that r/bitcoin and r/btc are inverse mirror images of each other? Both equal in character, differing only in skin."
844560806759030784,2017-03-22 14:46:02,"@agent_scruples Yes that's for sure. But when both people are Bitcoiners who desire 95% the same thing, they should not be enemies."
844557317551149057,2017-03-22 14:32:10,"Claiming one w/ an opposing viewpoint is an ""evil attacker"" is intellectually lazy. Found often in religion, politics, and blocksize debate."
844011493817532416,2017-03-21 02:23:15,"RT @ShapeShift_io: NEW! ShapeShift has added #Golem | Buy/sell #GNT, no account needed: https://t.co/ZqDUISFn6l https://t.co/tVdbIEuwOK"
843970026294202369,2017-03-20 23:38:29,@JaEsf @ShapeShift_io Thank you!!
843869284053016576,2017-03-20 16:58:10,"ShapeShift avg monthly volumes: $0.11m in 2014, $1.11m in 2015, $11.71m in 2016, and $30.26m in 2017 #finance #blockchain @ShapeShift_io"
843851183647264768,2017-03-20 15:46:14,"@morcosa If vast majority goes with new chain, and minority chain then changes POW... nail in the coffin in my opinion."
843850868231409664,2017-03-20 15:44:59,"@theonevortex @WhalePanda You sound just like the BU supporters who claim Blockstream ""took over Bitcoin."" Equally nonsense."
843850633065259008,2017-03-20 15:44:03,@theonevortex @WhalePanda I didn't know you trusted BU?
843850508125331456,2017-03-20 15:43:33,"@theonevortex @WhalePanda I stand by my point. If ETC dominated, even Vitalik would come around to considering it the ""real"" Ethereum."
843850261118509057,2017-03-20 15:42:34,"@theonevortex @WhalePanda The dominant chain will retain the name, imo. Might take weeks/months for that to be determined."
843850097670737920,2017-03-20 15:41:55,@theonevortex @WhalePanda Disagree. They believe Bitcoin should scale with onchain blocksize growth. Not an attack. A different opinion.
843848406296682498,2017-03-20 15:35:12,"@theonevortex @WhalePanda Well, let's imagine what would happen if ETC chain dominated. I bet it'd come to be known just as ""Ethereum"""
843847690580647936,2017-03-20 15:32:22,@theonevortex @WhalePanda That's not the question you asked. I didn't say anything about IP/trademarks/names.
843847402859708417,2017-03-20 15:31:13,@petertoddbtc @Technom4ge @MrHodl @lopp @malimujo @gavinandresen I kinda am supporting that idea too. Market will decide and debate can end.
843846459309068288,2017-03-20 15:27:28,@RNR_0 I don't support BU and my tweet advocated that Core should be leading the project... so cut the nonsense pls.
843846206518386688,2017-03-20 15:26:28,"@LarryBitcoin @agent_scruples @WhalePanda Miners follow the money. If users/company's leave a chain, price falls, miners leave too."
843846001240788993,2017-03-20 15:25:39,"@theonevortex @WhalePanda ETH, by any and every metric."
843844600326447105,2017-03-20 15:20:05,"@petertoddbtc @Technom4ge @MrHodl @lopp @malimujo @gavinandresen Thanks for the clarification, that's important."
843844412086149120,2017-03-20 15:19:20,"@Technom4ge @Ethan_Heilman @MrHodl @lopp @malimujo Yeah I don't support that and I don't think Gavin should be, either."
843844134679068674,2017-03-20 15:18:14,"@theonevortex @WhalePanda I don't consider BTU an altcoin. I consider it a fork of Bitcoin, and we don't know which will ultimately win yet"
843843759905345536,2017-03-20 15:16:44,"@LarryBitcoin @agent_scruples @WhalePanda I'm not making that conclusion. And if it's not a majority, then what are you scared of?"
843843633690398720,2017-03-20 15:16:14,"@WillyWanka3 You know Bitcoin already hardforked, right?"
843843528652455936,2017-03-20 15:15:49,"@theonevortex @WhalePanda Sadly, I think I'm hearing threats on all sides, at this point."
843843247835365376,2017-03-20 15:14:42,@Technom4ge @MrHodl @lopp @malimujo Yeah I agree... that sounds also reckless and I don't support it.
843843075042660353,2017-03-20 15:14:01,@GAndrewStone Which horse am I backing?
843842948420845568,2017-03-20 15:13:31,"Am I misunderstanding? If a Bitcoin w/ 2MB blocks is ""an altcoin"" because different rules, then is not a dif POW chain also an altcoin?"
843842478113546240,2017-03-20 15:11:39,"@WhalePanda Well... if a fork happens and one side changes its POW, I think I know which coins I'd sell. Would it not be an altcoin then?"
843841983575707650,2017-03-20 15:09:41,"@Technom4ge @MrHodl @lopp @malimujo I don't support attacks either... but I worry many would consider the 51% HF itself to be ""an attack"""
843841496155611140,2017-03-20 15:07:45,@BtcReadworthy @theonevortex With a fork there are two consensys's (consensi?) and you may choose the truth that you prefer.
843840760202039299,2017-03-20 15:04:49,"@h_msln @WhalePanda Who is ""they?"" You mean one person or an angry few? Why do you assume a community of thousands thinks identically?"
843840537979445248,2017-03-20 15:03:56,"@WhalePanda I don't support anyone ""attacking"" other chains. It's evidence that one has lost the argument...as is changing POW."
843838376398798848,2017-03-20 14:55:21,".@MrHodl @lopp @malimujo If it's a minority chain for an extended period of time, then the BTC community prefers the new. Let it be."
843838155090550784,2017-03-20 14:54:28,"@WhalePanda Then that new chain will lose price/value quickly, and problem still resolves itself."
843837402980532224,2017-03-20 14:51:29,"@agent_scruples @WhalePanda Absurd. ""BU guys"" in this case means a majority of the btc community. And if not, then don't fear a HF attempt"
843837246717542400,2017-03-20 14:50:52,@theonevortex If 51% disagree with consensus then it is not consensus. You mean they disagree with you.
843836995185065986,2017-03-20 14:49:52,"@WhalePanda ""Bad actors"" here meaning a majority of the Bitcoin community? And if not majority, then why fear the fork?"
843836581865803777,2017-03-20 14:48:13,"@bitstoic @malimujo If a fork happens, the market will choose with time. Don't be scared of that."
843836459652124672,2017-03-20 14:47:44,"@theonevortex I know you want to vilify them but they simply disagree with Core's proposed scaling path. w/o compromise, fork is inevitable"
843836090226302977,2017-03-20 14:46:16,@WhalePanda Devs are being attacked?
843835885401653249,2017-03-20 14:45:27,"@dariodipardo They aren't trying to ""destroy bitcoin."" Stop the nonsense. They are trying to scale via HF. You may disagree, but don't lie."
843835623249207296,2017-03-20 14:44:24,"@lopp @malimujo Unless that authority is Core, then it's fine"
843835313025961984,2017-03-20 14:43:10,@WhalePanda I don't support that either. Where did all the reasonable people go?!?
843834900478394370,2017-03-20 14:41:32,".@OnWindowly Vilifying them and pretending they're evil doesnt help anything. They are not an enemy, they are smart people with dif opinions"
843834154366222337,2017-03-20 14:38:34,".@malimujo It is not a legit option. It's the height of foolishness and desperation, the last bastion of a tribe unwilling to put egos down."
843833465925779456,2017-03-20 14:35:50,".@ARKblockchain If Core proposed it, I would advocate/promote/support that with every ounce of energy I could spare."
843832703053172737,2017-03-20 14:32:48,"Would Core actually prefer to change fundamental POW algo, rather than to propose a compromise 2MB+SegWit fork? If so, thats ego, not reason"
843832284797173760,2017-03-20 14:31:08,Changing Bitcoin's proof-of-work to prevent miners from mining is the most absurd and reckless thing I've heard in the scaling debate.
843823496560103425,2017-03-20 13:56:13,"RT @DCGco: The @DCGco Family is strong! @Unocoin and @ShapeShift_io partner to bring altcoins to India - exciting times!

https://t.co/r9XL‚Ä¶"
843476743927164932,2017-03-19 14:58:21,"@LarryBitcoin @darok @TraceMayer @ShapeShift_io So if Core leads a HF, for any reason, and 95% follow them, that is not Bitcoin either?"
843469485961084930,2017-03-19 14:29:31,"@LarryBitcoin @darok @TraceMayer @ShapeShift_io If BTC forks and vast majority goes with that fork, it is Bitcoin."
843469073430298626,2017-03-19 14:27:52,@piramida @ali @ShapeShift_io Limits are a couple thousand for major coins.  Use the precise order type for the higher limits.
843453208521510912,2017-03-19 13:24:50,@LarryBitcoin @darok @TraceMayer @ShapeShift_io Comments like that are why this discussion doesnt get anywhere.
843311524894728192,2017-03-19 04:01:50,RT @ali: God bless @ShapeShift_io. Went from #bitcoin to $dash to $dash to #bitcoin to cash across 7 days. +29% where should've been -25%.
843277287684489216,2017-03-19 01:45:47,"@darok @TraceMayer @ShapeShift_io So if a new fork assumed 99% hashrate and market cap, you would continue calling the minority chain BTC?"
843235186334564353,2017-03-18 22:58:29,"RT @bitfinex: Bitfinex has Introduced Chain Split Tokens (CSTs) trading Pairs BCC/USD, BCC/BTC, BCU/USD, and BCU/BTC: https://t.co/Jc86ls3P‚Ä¶"
843224868804091904,2017-03-18 22:17:29,"@robertclem @coinbase, but it requires some time/delay in verification so start asap"
843218529847574529,2017-03-18 21:52:18,"@robertclem https://t.co/UPChibh1H8 of course (disclaimer: that's my company) Fast and easy, no accounts."
843218304844140544,2017-03-18 21:51:24,"@btc_joe ""I support destroying your intellectual capital"" .... I must be forgetting where I made such a statement?"
843198902207631360,2017-03-18 20:34:18,One billion dollars traded in the crypto markets past 24 hrs!!! Highest ever? https://t.co/MucVmDhAn9 #bitcoin #ethereum #dash #zcash
843102614489354240,2017-03-18 14:11:42,"@marrybacon @ShapeShift_io @Dashpay A few years ago, there were 50 websites, now there are millions! Unsustainable!"
843101090426118144,2017-03-18 14:05:38,"@gregory_nico @ShapeShift_io Thats why I said ""unambiguously."""
842874116126490624,2017-03-17 23:03:43,"@kyletorpey @ryanxcharles Then it's appopriate to stick with two tickers/names until clear winner emerges, however defined."
842873967379660800,2017-03-17 23:03:08,"@arronschaar @ShapeShift_io I was part of the agreement, but had to clarify something. Miscommunication. See here: https://t.co/njoXm9pZBc"
842833199457685504,2017-03-17 20:21:08,@arronschaar @TraceMayer @ShapeShift_io Im open to that point of view also. Depends what community desired.
842832967642763264,2017-03-17 20:20:13,@malimujo @TraceMayer @ShapeShift_io Market cap
842830189474136064,2017-03-17 20:09:10,"@TraceMayer @ShapeShift_io If one has 95% hashpower and value, I will call that the winning chain."
842830018250133504,2017-03-17 20:08:30,@timoncc @ShapeShift_io Then we'd stick with two symbols and names obviously
842829854588329984,2017-03-17 20:07:51,@notgrubles @rogerkver @ShapeShift_io He is also one of the biggest investors in Bitcoin but u conveniently ignore that for your narrative
842803173198888961,2017-03-17 18:21:49,"For the record, myself (personally) and @ShapeShift_io would use the BTC/Bitcoin name for whichever chain unambiguously ""won,"" over time."
842798690259664898,2017-03-17 18:04:00,Please stop spinning the exchange announce into something it's not: https://t.co/njoXm9pZBc #bitcoin
842781228273209348,2017-03-17 16:54:37,"@ARKblockchain The nightmare is the tension/conflict in the community, needs resolution, even if very painful short-term."
842779625776467969,2017-03-17 16:48:15,Bitcoin Exchanges Unveil Emergency Hard Fork Contingency Plan https://t.co/wqlbJrluhG via @CoinDesk
842778801302093824,2017-03-17 16:44:58,"@philfrancis77 @ARKblockchain Not endorsing this position, but it's because they don't trust HF will happen after. They feel lied to already"
842193433934589952,2017-03-16 01:58:56,"@taidi_ji @PeterSkrzyniarz @ShapeShift_io @Dashpay I still have seen no evidence that Dash is a ""scam"". The early mine is known to all."
842102240831803392,2017-03-15 19:56:34,"Bitcoin's Price Just Ended Its First Month Above $1,000 https://t.co/eYHk62TyMF via @CoinDesk"
842069059885707264,2017-03-15 17:44:43,"@hernzzzzzz @alansilbert @rogerkver Censored, moderated, whatever. It's absurd to remove a bugfix for a Bitcoin client from /r/bitcoin."
842067751485210624,2017-03-15 17:39:31,"@notgrubles @SaroDarksbane @hernzzzzzz BU clients are running Bitcoin. Check their mempool, their blockchain, and their unspent outputs."
842056354323931137,2017-03-15 16:54:14,"@electrospark1 @ShapeShift_io @VinnyLingham @BTCTN @Dashpay Okay, they will take care of you soon. Over 4k customer orders past 24 hrs."
842056003898228738,2017-03-15 16:52:50,@hernzzzzzz @alansilbert @rogerkver What does the hotfix news being blocked from /r/bitcoin have to do with Roger?
842055613580480514,2017-03-15 16:51:17,@electrospark1 @ShapeShift_io @VinnyLingham @BTCTN @Dashpay @DASHdetailed Perhaps it's stuck in the mempool? Have you contacted support?
842050438488834050,2017-03-15 16:30:43,@alansilbert BU at fault for the bug. /r/bitcoin mods at fault for the censorship.
842041747630891009,2017-03-15 15:56:11,/r/bitcoin readers not even aware a hotfix was released for BU. Each side continues poisoning and degrading the oth‚Ä¶ https://t.co/v1UXaR0mlI
842038237132656640,2017-03-15 15:42:14,"@taidi_ji @ShapeShift_io @Dashpay If it works as advertised it's not a scam. I've heard every digital asset called a scam, incl. Bitcoin."
842018390248173570,2017-03-15 14:23:22,"@EoinCarroll50 @ShapeShift_io @Dashpay It's okay bro, I have a t-shirt that I bought in 2011 for 17 Bitcoins. ::hug::"
842012086557392896,2017-03-15 13:58:19,Dash at $100.  unf*ckingbelievable!   Buy (or SELL!!!) at https://t.co/UPChibh1H8 #blockchain #finance @ShapeShift_io @Dashpay
841737055629524992,2017-03-14 19:45:27,@IcarusGlider @motherfunkier @philfrancis77 @rogerkver @BitcoinUnlimit They are more than full and it's causing serious problems.
841736799345033216,2017-03-14 19:44:26,".@Technom4ge BU would not be an altcoin. It would be a different version of bitcoin and the market, with time, would decide which was ""real"""
841414126807179264,2017-03-13 22:22:15,RT @ShapeShift_io: UPDATE! Monero is back on ShapeShift! We apologize for the delay. Get exchanging: https://t.co/dIqQDthmoT #xmr #monero
841352712478478337,2017-03-13 18:18:12,The Market Cap of All Cryptocurrencies is Up $4 Billion Since Friday https://t.co/KvSj4W9as7 Buy/sell easily at @ShapeShift_io
841351105644765184,2017-03-13 18:11:49,"@FightFightFight @ShapeShift_io Transactions can fail for various technical reasons, but never due to price movements."
841334258937524225,2017-03-13 17:04:53,"RT @ShapeShift_io: UPDATE: ShapeShift is under very heavy load today, orders are processing more slowly than normal. We're workin on it! #b‚Ä¶"
841334217376161792,2017-03-13 17:04:43,"Congratulations to @ShapeShift_io's partner and investor, @Bitfinex . $1 billion in monthly volume! #bitcoin https://t.co/0gpTgYf6Mm"
841330488853819393,2017-03-13 16:49:54,Bitcoin shrugs off rejection by US regulators https://t.co/Y55fknzyAe
841301070517293056,2017-03-13 14:53:00,@andrewbaine @ShapeShift_io USD (or other fiat) is still the numeraire in peoples' minds. Not forever though ;)
841291088220569601,2017-03-13 14:13:20,"@thedanvass @ShapeShift_io More of both, but our avg transaction size has risen to about $600 today, while six months ago = $300"
841289132039143425,2017-03-13 14:05:34,Crypto markets have been on a tear. @ShapeShift_io processed $3m in past 24 hrs (equivalent to entire month Jan '16) https://t.co/KsTQHNUbY5
841063401908523013,2017-03-12 23:08:35,Blockchains could make gaming more fair https://t.co/REMdxyv2Db via @VentureBeat
840363282401787905,2017-03-11 00:46:34,RT @bendavenport: SEC: Bitcoin must be traded on regulated markets to be traded on regulated markets.
840314284110422016,2017-03-10 21:31:52,@TorontoBigD @PeterSchiff @CNBC So you take Bitcoin's most volatile day in a couple years as your one data point eh?
840313277561348100,2017-03-10 21:27:52,@jacksonwoodHQ Because they've prevented many people and organizations from acquiring Bitcoin in their portfolios.
840313020848975877,2017-03-10 21:26:51,"@hughlang SEC shouldn't have the power to prevent adults making voluntary, informed decisions with their own money."
840312866238545922,2017-03-10 21:26:14,The SEC's decision on Bitcoin ETF will become the poster child of regulators killing innovation. No clearer example. @SEC_News
840311063128223744,2017-03-10 21:19:04,The SEC. Protecting banks from competition. Screwing everyone else. Four years of delay on Bitcoin ETF only to shit on it at 11th hour.
840291499002716162,2017-03-10 20:01:19,@morcosa @juscamarena Is that different than using influence on behalf of segwit?
840280787958288384,2017-03-10 19:18:46,RT @Abhi1Kenobi: Wondering if #bitcoin etf needs at least 6 confirmations from the SEC to get approval :) #bitcoinetf
840250756095758336,2017-03-10 17:19:26,This is gold https://t.co/b8oAo41gzd
839941604144197632,2017-03-09 20:50:58,"@VladZamfir I think you mean ""rich people"" ;)  And wouldn't a world of peaceful free market crypto rich people be better than status quo?"
839900352619118594,2017-03-09 18:07:03,"@VladZamfir ""oligarch"" implies undo political influence and protection."
839899728376659969,2017-03-09 18:04:34,@kryptokidz_ @ShapeShift_io Is there a wallet that can guarantee inclusion in next block? That's exciting! Please let me know what it is!
839896022121869312,2017-03-09 17:49:50,@bergealex4 @taidi_ji @eric_lombrozo Last time I did it was full of loud/obnoxious trolls. Is there a private room for actual conversation?
839879786965123076,2017-03-09 16:45:20,@stewartslockbox @FedericoTenga @ShapeShift_io In a couple years we could assess and see if layer 2 solutions were resolving things.
839878682395230208,2017-03-09 16:40:56,"@eric_lombrozo @cane_jean @FedericoTenga Eric are you not worried about congestion, exponentially rising fees, and value-loss of platform?"
839878423417798656,2017-03-09 16:39:54,"@hitchslappy @ShapeShift_io If a ""plan is out there"" I'm unaware of it. I am not seeing any Core devs advocating for a HF + SegWit plan."
839878226579243008,2017-03-09 16:39:08,@cane_jean @FedericoTenga @eric_lombrozo And letting congestion dissuade adoption is not risky? Tech risk is but one kind of risk.
839873690560974848,2017-03-09 16:21:06,@poucatreta Well... consumers won't wait for tech either. They'll use alternatives. Bitcoin rapidly losing value as value transfer system.
839873406715621376,2017-03-09 16:19:58,.@FedericoTenga @ShapeShift_io Encourage Core to propose/plan a SegWit+HF @ 2-4MB. That would rally much of both sides together. No more BU
839866404329435136,2017-03-09 15:52:09,@poucatreta Where did I advocating changing the rules every time there is a problem? https://t.co/3qZx1yF4hl
839863825088278529,2017-03-09 15:41:54,@LarryBitcoin @paul_btc @twobitidiot @ShapeShift_io I've never promoted/advocated BU so what are you talking about?
839863680695140352,2017-03-09 15:41:20,"@hitchslappy @ShapeShift_io I'm not expecting anything at this point, that's the status quo. I'd like a 2-4MB HF plan + SegWit."
839849929338150912,2017-03-09 14:46:41,"@RyanDippmann @LamassuBTC @ShapeShift_io We do, we keep increasing fees on ourself and our customers. Now we see more ALT&lt;&gt;ALT trading."
839703506395234304,2017-03-09 05:04:51,Investors chained to bitcoin bets as U.S. ETF decision looms https://t.co/mp0DHABCwD via @Reuters
839674358389932032,2017-03-09 03:09:02,"@juscamarena How was SW a compromise, exactly?"
839674239368183808,2017-03-09 03:08:33,@juscamarena I'm not sure that's true
839673631164760064,2017-03-09 03:06:08,"@juscamarena The ""what"" isn't as important as Core putting the idea out there."
839673431792762880,2017-03-09 03:05:21,"@juscamarena @djbooth007 Core can propose/plan a HF... if tied to SW, I think both could pass with negotiation and work."
839673113977704448,2017-03-09 03:04:05,"@juscamarena A one-time increase HF, if proposed/planned by Core, has a chance of bringing enough people together for compromise."
839672936168632320,2017-03-09 03:03:23,"@paul_btc @twobitidiot @ShapeShift_io I do promote SegWit, but it is nowhere close to passing, and the camps are now entrenched."
839672758837587973,2017-03-09 03:02:40,@winecatman I support SegWit but it isn't even close to activating. What now?
839672599340859395,2017-03-09 03:02:02,"@djbooth007 @juscamarena @ShapeShift_io When is SegWit happening, exactly? It won't happen until parties compromise and work out a plan."
839642624411729922,2017-03-09 01:02:56,"@MikeCautillo @RenSylvain @ShapeShift_io Yes and I support SW. But it isn't even close to adoption, and real consequences are happening."
839642479393660928,2017-03-09 01:02:21,@juscamarena @ShapeShift_io That doesn't help resolve the current reality I'm afraid.
839641368456806401,2017-03-09 00:57:56,"@juscamarena @ShapeShift_io SegWit is not even close to activation, unfortunately. I'm concerned many aren't appreciating real-world use."
839641202278400000,2017-03-09 00:57:17,@ajtowns @ShapeShift_io All of the above.
839635224719941634,2017-03-09 00:33:31,"I know the maximalists don't care, but @ShapeShift_io is finding it increasingly hard to send/receive Bitcoin due to congestion/fees."
839560081805037568,2017-03-08 19:34:56,"Veem, formerly Align Commerce, gets $24M from GV, others for its Venmo for¬†SMBs https://t.co/ETjoga4pty via @techcrunch #bitcoin"
839527957718773760,2017-03-08 17:27:17,I just replaced my public email address with a https://t.co/IsAF5tJka1 profile. You can now reach me here:  https://t.co/nsp8n0vA3C
839490013226205187,2017-03-08 14:56:30,Good overview of new features/improvements in Bitcoin Core 0.14 https://t.co/7l2ZjazdPT
839310713449504768,2017-03-08 03:04:02,RT @KimDotcom: Obama accused Russia of  cyberattacks while his CIA turned all internet enabled consumer electronics in Russia into listenin‚Ä¶
839309878963417088,2017-03-08 03:00:43,SEC Expected to Decide Bitcoin ETF's Fate By Friday https://t.co/2FJMD7VOSi via @CoinDesk
839308420331208710,2017-03-08 02:54:55,Regulators take note... try not to be on the wrong side of history when it comes to Bitcoin https://t.co/xaI8IbYhug
839223110201131012,2017-03-07 21:15:56,BitPay: ‚ÄúThe Bitcoin Fee Market‚Äù by @spair https://t.co/7md60E4bnI
839194858082402304,2017-03-07 19:23:40,@notgrubles @WhalePanda @ShapeShift_io We'll use them.
839194545715826689,2017-03-07 19:22:25,@notgrubles @WhalePanda @ShapeShift_io Atomic swaps are awesome and I encourage their use and adoption.
839193696163741696,2017-03-07 19:19:03,@notgrubles @WhalePanda @ShapeShift_io Thank you for your work. Please stop vilifying people you disagree with.
839192988504981505,2017-03-07 19:16:14,@BlueDavid @WhalePanda Or you could say there are groups of people who simply disagree about how to scale Bitcoin in the short/med term.
839192434634600448,2017-03-07 19:14:02,@notgrubles @WhalePanda @ShapeShift_io He's an investor in over 50 Bitcoin companies and in Bitcoin. What do you do?
839192147765133312,2017-03-07 19:12:54,@notgrubles @WhalePanda Inconvenient fact for you:  I support SegWit.
839134886225195010,2017-03-07 15:25:21,"@WhalePanda Both sides are quite sure that the other has ""hijacked"". It's a meaningless political term."
839131250283671553,2017-03-07 15:10:55,The US Federal Government has already become what Orwell warned us about. #DissolveDC https://t.co/mFvr0uBpbk
838813197117292544,2017-03-06 18:07:05,"""We hang the petty thieves and appoint the great ones to public office."" ‚Äî Aesop"
838772761564753920,2017-03-06 15:26:24,"Congratulations to @WirexApp (a @ShapeShift_io partner), which just raised $3M from SBI Group https://t.co/OlXNzt2sLA #bitcoin #finance"
838771533493448705,2017-03-06 15:21:31,Send Bitcoin to MPesa accounts for free with Bitwala https://t.co/4jw6xmbB9U #remittance
838771096409227264,2017-03-06 15:19:47,Final week before the SEC #Bitcoin ETF decision. Will adults be allowed to make decisions with their own money? Stay tuned to find out!
838768934216167426,2017-03-06 15:11:12,Bwahahahah https://t.co/1Z3WmZNirQ
838738346461511683,2017-03-06 13:09:39,"RT @allenscottoshi: What's better than last week's @LocalBitcoins record in #China?
This week's #Bitcoin record! @cnLedger 
6M CNY (or 7,00‚Ä¶"
838538636731813888,2017-03-05 23:56:04,"Oldie but Goodie: Bitcoin's Biggest Challenge is Educational, Not Technical https://t.co/CE8shEyHqO via @CoinDesk"
838049941545156608,2017-03-04 15:34:10,"@stupidcache @rogerkver @gavinandresen @aantonop @jgarzik I'm not blocking SW, I'm in favor of it. I'm also in favor of a HF block increase."
838049701689765888,2017-03-04 15:33:13,"@Technom4ge That's a stupid and unhelpful ad, I agree."
838048987663978499,2017-03-04 15:30:23,"RT @bobbyclee: How to solve #Bitcoin's blocksize debate &amp; impasse? Which do you support &amp; to activate?

Please #Retweet; Get a balanced vie‚Ä¶"
837742292597420032,2017-03-03 19:11:41,RT @mineboxHQ: @ShapeShift_io @TokenlyInc @SiaTechHQ https://t.co/3ksqDiIomf
837727883590266880,2017-03-03 18:14:26,@Technom4ge That's the kind of language used by politicians
837463438217609216,2017-03-03 00:43:37,RT @ShapeShift_io: üìΩ Join @mperklin &amp; ShapeShift Emily today to discuss #Cloudbleed &amp; #security. Come w/‚ùì for Q&amp;A! 11:30 pm EST üîê https://t‚Ä¶
837347675410427905,2017-03-02 17:03:37,RT @themoneygame: Bitcoin climbs above gold for the first time ever https://t.co/DhTmL0xvue https://t.co/8zx2O8pTVN
837326332661022720,2017-03-02 15:38:49,RT @CharlieShrem: We've come so far. $9.48 to $1245 in 5 years. @ErikVoorhees and @Coinapult https://t.co/7QPOsPOfDK
837322625147940866,2017-03-02 15:24:05,"Ladies and Gentlemoon, 1 Bitcoin just surpassed the price of 1 ounce of Gold https://t.co/THixVQHQR0  #MeaninglessButCoolStatistic #finance"
837315925263138816,2017-03-02 14:57:27,RT @ShapeShift_io: Pretty cool stuff from our partner @PurseIO! Introducing Merchant Storefronts! Learn more: https://t.co/3h9jxOuOuc
837078615703633921,2017-03-01 23:14:28,@roysebag @AmerBanker k... pls email me at erik at shapeshift dot io and we can discuss further if you want. Love your company btw
837070182237405187,2017-03-01 22:40:58,"@theonevortex @lopp @ShapeShift_io That's pretty cool.... we'll discuss internally. We may not have the bandwidth for it, but will consider."
837069170927931393,2017-03-01 22:36:56,@roysebag Could you do it on June 13th at @AmerBanker blockchain conference?
837024896291057664,2017-03-01 19:41:01,"@jlbtc @theonevortex @ShapeShift_io @lopp No, it's for any dev who wants to access the recommendation automatically. Feel free not to use."
837024717521440768,2017-03-01 19:40:18,"@lopp @theonevortex @ShapeShift_io Bitcoin-pay 5% fee ($0.50) on a $10 payment and itll be ""pretty likely"" that it confirms in 10-60 mins :("
837019523333128192,2017-03-01 19:19:40,@theonevortex @lopp @ShapeShift_io There is no correct number. No fee calculation metric can guarantee inclusion in next block.
837019361026183175,2017-03-01 19:19:01,"@lopp @theonevortex @ShapeShift_io Now we're down the road of ""tell users a bunch of stuff they don't want to deal with just to pay someone"""
837019165139603464,2017-03-01 19:18:14,"@lopp @theonevortex @ShapeShift_io I partly agree with that. However, there is no way to know exactly what a fee should be, even for wallet."
837018933890809856,2017-03-01 19:17:19,@theonevortex @lopp @ShapeShift_io Not sure if that's valuable. Sophisticated users already know how to calc fee based on inputs/size
837018647814103040,2017-03-01 19:16:11,"@lopp @theonevortex @ShapeShift_io If you have a better heuristic we could use to recommend a fee to normal users, I'm all ears"
837018438744870912,2017-03-01 19:15:21,"@theonevortex @ShapeShift_io @lopp Range isn't helpful for a normal user... tool is meant to be easy and quick, not thorough/comprehensive"
837018255789273088,2017-03-01 19:14:37,RT @ShapeShift_io: JOIN US for FB live w/ CISO @mperklin as we talk #Cloudbleed and answer your security FAQs! March 2 | 11:30 pm EST: http‚Ä¶
837017552098316290,2017-03-01 19:11:50,@juscamarena @lopp @ShapeShift_io Then those people don't need the tool.
837017150116270088,2017-03-01 19:10:14,"@theonevortex @ShapeShift_io @lopp A normal user has no idea how to assess ""cost per byte of data"". The estimate is there for them, not you."
837009583772172289,2017-03-01 18:40:10,Easy real-time fee recommendation for Bitcoin transactions https://t.co/HK5UEMraxm @ShapeShift_io
836967535652323329,2017-03-01 15:53:05,"$1,210: Bitcoin Price Hits New All-Time High Amid Sustained Support https://t.co/5kJylh0Dos via @CoinDesk"
836966569603436544,2017-03-01 15:49:14,"RT @A78gnstNYDFS: Hearing on #Bitcoin #Bitlicense scheduled 3/16/2017 at 9:30 am at 71 Thomas St, room 204 with @PierreCiric unless.. https‚Ä¶"
836964063804547073,2017-03-01 15:39:17,"Part of the problem in the block size debate is that each side is finding the worst arguments presented by the other, and refuting those."
836950815533334528,2017-03-01 14:46:38,"@CryptoHustle Agree, I own both, and am bullish on both.  I believe they compliment and inform each other."
836950593323282432,2017-03-01 14:45:45,This is pretty sweet... congrats to the @mineboxHQ team https://t.co/B1i0ineCon
836726887330234370,2017-02-28 23:56:50,Comparison: 3 Platforms Paying You in Bitcoin for Uploading Images https://t.co/rj9WPQDJz1 via @BTCTN
836674132561416194,2017-02-28 20:27:12,Blockchain Blog: Four Bitcoin documentary must-sees https://t.co/I9Lp0HY3Am
836671421501726720,2017-02-28 20:16:26,Big business gets behind Ethereum https://t.co/lXh6PRo47u
836637861524942848,2017-02-28 18:03:04,"@PeterBorah There is no violence inherent in property. There is violence inherent in taking, harming, or destroying property."
836637296401256449,2017-02-28 18:00:50,"@PeterBorah Well if I owned some bread and you were starving, Id share some with you."
836637046869536770,2017-02-28 17:59:50,"@Chrisace89 When an experiment fails, change a variable and try again."
836626939590868994,2017-02-28 17:19:40,@tonksywonksy @ShapeShift_io Not all of the world is comprised of wealthy individuals who have $600 phones.
836615367212556288,2017-02-28 16:33:41,@PeterBorah I don't disagree with that. I'm merely suggesting it is theft and illegitimate at any percentage.
836615165562990592,2017-02-28 16:32:53,"@Chrisace89 It was tried... the United States started as that, but statism continues seeping back into society."
836614948323213312,2017-02-28 16:32:01,"@PeterBorah Disagree. If you own something, I will respect that and you will not need to violently fend me off."
836614780626550784,2017-02-28 16:31:21,"@moraltwittizen I don't want to be a ""citizen."" I'm coerced into it; denied freedom to move, associate, and voluntarily contract without it."
836614357878439936,2017-02-28 16:29:41,@PeterBorah I have no idea what that sentence means.
836614223648129026,2017-02-28 16:29:09,"@PeterBorah Private property, like money, religion, and language, is a social construct, not an invention of government."
836608402386214913,2017-02-28 16:06:01,"@BlueMeanie4 @brianchoffman No, it's not coercion, it's fraud (in the case of ponzi). Monopolies are only coercion if gov't enabled them."
836607599009214465,2017-02-28 16:02:49,"@moraltwittizen Agreed, but inheritance taxes are no more egregious than income taxes in the first place."
836607349364260865,2017-02-28 16:01:50,"@BlueMeanie4 @brianchoffman Typically, the sociopath is the one advocating force and coercion."
836607033617092608,2017-02-28 16:00:34,"@KaiBakker In the case of minimum wage, there is no net benefit whatsoever, and it harms those most in need. What worldview can support it?"
836606169301012480,2017-02-28 15:57:08,"@brianchoffman Probably depends on the ""community action"" and the individual. For example, I wouldn't contribute 50% of my income to war."
836604441998557186,2017-02-28 15:50:16,"@thechaz Thomas Sowell speaks well on it: https://t.co/6PsCrAlD4w  Remember the min wage is always, in reality, zero."
836603739742031873,2017-02-28 15:47:29,.@thechaz My worldview is based on nothing but a consistent application of the principle of self-ownership and a desire for peace.
836602692336234496,2017-02-28 15:43:19,@bedehomender If only they were so honest about it
836602576183382016,2017-02-28 15:42:52,"@thechaz @Kosmatos I've made less than minimum wage before, why is that relevant though? The argument isn't that min wage is comfortable."
836601335848054784,2017-02-28 15:37:56,Would a 100% tax on income be morally acceptable? Would 90%?  At what percentage does such theft become okay?
836596701532196865,2017-02-28 15:19:31,One can often assess the wisdom of another by asking whether they support the minimum wage.
836595494226956288,2017-02-28 15:14:43,"Dash has overtaken Ripple as the 3rd most valuable digital asset, up over 14% today w/ market cap over $225m https://t.co/EBzjWyuUbu"
836591556551393283,2017-02-28 14:59:04,You're a wise and eloquent man! https://t.co/E283WaClCg
836588558421016576,2017-02-28 14:47:10,"@Beetcoin @KarlChappe If you only measure one against the other, you'll never realize both are growing."
836588356473610240,2017-02-28 14:46:21,".@PeterSchiff and I debated Bitcoin back in 2013...  https://t.co/JwWYyM8j8t Gold and Bitcoin are compliments, not rivals."
836430798697992192,2017-02-28 04:20:17,"Some Bitcoiners think Ethereum will lose. Some Ethereumers think Bitcoin will lose. I think both will win, and fiat will lose. #blockchain"
836430118394421248,2017-02-28 04:17:35,Business Giants to Announce Creation of a Computing System Based on Ethereum https://t.co/ZU6gMk35sj
836410007809830912,2017-02-28 02:57:40,Example #481295336 of Government screwing people: @CoinBase forced to abandon Hawaii customers https://t.co/UI6mWMKrU6 #bitcoin
836392481528905728,2017-02-28 01:48:01,RT @CNBCFastMoney: Poll: Who won the debate?
836325990368342016,2017-02-27 21:23:48,@BTCTroubadour yep!
836324926743162881,2017-02-27 21:19:35,"RT @David_Cameron: Great to open @Blockchain‚Äôs new London HQ today - a fascinating insight into the future of finance, where Britain is lea‚Ä¶"
836273310858100736,2017-02-27 17:54:29,Re: #Bitcoin ETF on Feb 14th there was https://t.co/8H0WK0hI4W and then today there is https://t.co/bewczTmjJO Conclusion?
836268536100237312,2017-02-27 17:35:30,Fun times... Presenting Bitcoin at @NYUniversity w/ @CharlieShrem and @iravagecoins Jan '13. ATH hit during class =) https://t.co/pTLPJqeydm
835906320062644224,2017-02-26 17:36:11,@empuramedia Fit can't have restricted supply because it has an omnipotent issuer. What are you referring to?
835906147743838209,2017-02-26 17:35:30,"If the banks put their $250 million into Bitcoin, instead of nebulous ""permissioned blockchain projects,"" they'd have $1B today + wisdom."
835594837982334977,2017-02-25 20:58:28,.@JamesGRickards Try moving $5m worth of gold across a border. Then try the same with Bitcoin.
835513582959935488,2017-02-25 15:35:35,"@ElDub81 @JohnStossel Money become more controlled by government in 1913, not less. The Fed is a gov+bank partnership."
835327551040077824,2017-02-25 03:16:22,"Remove control of money from government, and you may find both to be much improved. #bitcoin"
835326259840299008,2017-02-25 03:11:14,Fiat currencies have unrestricted supply and restricted borders. Bitcoin has the opposite: restricted supply and unrestricted borders.
835325329971490816,2017-02-25 03:07:32,".@onemanatatime In actual fact, it is many things. Bitcoin being the most important, but not the only."
835310486396731392,2017-02-25 02:08:33,"#TokensAreComing ""Venture Capital Fund To Become First To Issue Own Digital Tokens"" https://t.co/PXLK1MmVhP @ShapeShift_io"
835309069741219840,2017-02-25 02:02:56,RT @feeonline: Isolationist immigration policies make no sense in light of the enormous economic benefits of free migration. https://t.co/M‚Ä¶
835288830336868352,2017-02-25 00:42:30,Its hilarious that media outlets are getting blocked from White House. @realDonaldTrump is making the absurdity of Federal Government plain.
835285283817955329,2017-02-25 00:28:25,"Because we dont collect sensitive user data or passwords, when #CloudBleed happens, #ShapeShiftUserNotAffected https://t.co/9IJ9VJpcW8"
835155512425533440,2017-02-24 15:52:45,"This is hilarious... ""A leading economist explains why bitcoin isn't money"" https://t.co/LivUM3GZmM via @clusterstock"
835100898175090688,2017-02-24 12:15:44,‚ÄúA Uniquely Opportune Time to Invest in the Broader Bitcoin Ecosystem‚Äù by @bitcom21 https://t.co/Lv3QeuHkf2
834900267124523008,2017-02-23 22:58:30,BOOM BABY https://t.co/j4Y4tyCMCJ
834838987885932544,2017-02-23 18:54:59,@Xentagz This tool should do the trick: https://t.co/GLqSUylX6m
834822905636745216,2017-02-23 17:51:05,Storj Labs Raises $3 Million in Seed Funding  https://t.co/ABd48nHPDv  Buy Storj tokens easily at @ShapeShift_io https://t.co/HMkhxabU3p
834814536943288320,2017-02-23 17:17:50,Nice! https://t.co/WaOmFW2AY6
834814106490327041,2017-02-23 17:16:07,Hehehe @PayQwick blocked me on Twitter after I shamed them for using government to block their competition. Ref: https://t.co/ZnXPKHskQx
834812629298331648,2017-02-23 17:10:15,RT @ShapeShift_io: üìΩ Want to learn how you can use our Shifty Button tool to accept #altcoins? Join the LIVE chat at 12:30 PM EST: https://‚Ä¶
834552563701837824,2017-02-22 23:56:51,"RT @ShapeShift_io: LIVE EVENT: Join our marketing director, Emily, tomorrow at 12:30 am EST for a live tutorial of our Shifty Button! https‚Ä¶"
834508136736313344,2017-02-22 21:00:18,".@viajeroloco13 Node counts have dropped primarily because people can now use light clients, not because of bandwidth issues."
834477997847572481,2017-02-22 19:00:33,"@eric_lombrozo The protocol, sure. And nobody understands actual bitcoin users better than the companies."
834477740011114496,2017-02-22 18:59:31,Washington State Bill to Ban Bitcoin for Pot Fails https://t.co/7qTy2CFueB  (shameful crony @PayQwick tries to prevent competition) #weed
834273634764062722,2017-02-22 05:28:29,Break Up the USA | Mises Wire https://t.co/rg5aJCiYGF
834171533337694209,2017-02-21 22:42:46,RT @BitcoinMagazine: Blockchain Capital Lures #Bitcoin Analyst Away from Wall Street Firm https://t.co/ZoQSxqv6do #blockchain #fintech #Wal‚Ä¶
834137268919021568,2017-02-21 20:26:37,SpaceX rocket landing as seen from drone https://t.co/Ap681adANE
834135475698806784,2017-02-21 20:19:29,This Is The World's First Cryptocurrency Issued By A Hedge Fund via @forbes https://t.co/zAVipH6yqB
834120952866865156,2017-02-21 19:21:47,"RT @coincenter: Coin Center raises $1 million for 2017 operations, announces new supporters https://t.co/C5R25HsfJV https://t.co/ZpvuxebGmm"
834117932124864513,2017-02-21 19:09:46,RT @openbazaar: Thanks @ShapeShift_io! Your Shifty Button has made OpenBazaar much more versatile with online payments! https://t.co/QIT8Ud‚Ä¶
834091155348455424,2017-02-21 17:23:22,"@MrHodl @VitalikButerin Man... I get such deja vu reading comments like that. Equally as obnoxious, and wrong, as ""Bitcoin is a scam!"""
834090881053556736,2017-02-21 17:22:17,@RoadStress @taidi_ji @CharlieShrem Stop with the vilification. Many cos support larger blocks (not necessarily BU which one implementation)
834089997363982337,2017-02-21 17:18:46,"@taidi_ji @CharlieShrem A HF with larger base blocksize is desired by large portion of community, as is SegWit. Both should be done."
834089818510544896,2017-02-21 17:18:04,@weex Goodness why didn't you say so? Shall we shrink the blocks immediately then to 250kb?? We want more yous!
834089588159311873,2017-02-21 17:17:09,It's unfortunate that thoughtful and interesting posts like this from @VitalikButerin never make it onto /r/bitcoin. https://t.co/4DoOSju401
834087530890944512,2017-02-21 17:08:58,"You can now instantly buy bitcoin using credit cards in UAE - For our users in United Arab Emirates, we‚Äôre... https://t.co/PKdEo2YaRz #dubai"
834076367155257344,2017-02-21 16:24:36,@davef__ @MrHodl @MartyBent I wrote about that here.... https://t.co/BQynfsjuA8
834073770210033665,2017-02-21 16:14:17,@Technom4ge @CharlieShrem Well I hope you're right... but waiting another 6-12 months to see if that happens is painful while UX decays.
834071493868978178,2017-02-21 16:05:15,@Technom4ge @CharlieShrem why?
834071375656656897,2017-02-21 16:04:46,"@MrHodl @MartyBent Free markets tend to route around obstacles. Capacity limitations are an obstacle, and if we don't resolve, market will"
834070471574482944,2017-02-21 16:01:11,".@poucatreta Or people could stop with this false dichotomy, and work toward SegWit + Block increase, which IMHO the community would accept."
834070004714831876,2017-02-21 15:59:20,@MrHodl @MartyBent Individuals who want a convenient way to transact and store wealth &amp; who have no ideological or technical passion for BTC
834069760077885440,2017-02-21 15:58:21,"@MartyBent @MrHodl I'm not you guy, pal!"
834069609900830720,2017-02-21 15:57:45,"@MartyBent @MrHodl ""The adoption some would like?"" It hasn't had *any* adoption. It isn't even activated, nor close to it, sadly."
834069095737880576,2017-02-21 15:55:43,"@MartyBent @MrHodl And normal users will stick with fiat, or a different crypto, finding little marginal improvement in Bitcoin."
834067281705582592,2017-02-21 15:48:30,"@MartyBent @MrHodl Wake up bud, the percentage is not growing, has been stagnant for 2 months, and is nowhere close to 95%."
834067054797922304,2017-02-21 15:47:36,"@Awyee707 @MrHodl @CharlieShrem What do you mean by ""consensus?"" 100% agreement?"
834066714316906497,2017-02-21 15:46:15,@MartyBent @MrHodl Adoption has been good. Let's keep it that way by not suffocating tx throughput.
834066376725819392,2017-02-21 15:44:55,@MartyBent @MrHodl ...but it's not going to activate. It's not close. So now what?
834066250418503680,2017-02-21 15:44:24,"@MrHodl @theonevortex 3-10MB is probably fine also. 20MB maybe not. It's currently arbitrary at 1MB, is it not?"
834065974907305985,2017-02-21 15:43:19,.@MrHodl @Awyee707 @CharlieShrem SegWit instead of a block increase is not being accepted by the community. They should tie the 2 together.
834065459695718400,2017-02-21 15:41:16,"@MrHodl @MartyBent I am ""dealing with it."" Unreliable txs, high fees, angry/confused customers, and risk of adoption slowing/loss."
834065200143810560,2017-02-21 15:40:14,.@theonevortex I'm not suggesting an unlimited blocksize. 2-8MB + SegWit would buy substantial time for layer 2 solutions to deploy.
834064943423045632,2017-02-21 15:39:13,@theonevortex Why does that matter? Neither does Bitcoin.
834064733091278849,2017-02-21 15:38:23,"@Awyee707 @MrHodl @CharlieShrem Sure, that's true (and good). But while Core doesn't control it, they have significant influence."
834064396435464192,2017-02-21 15:37:02,"@MartyBent @MrHodl It's a matter of degree. A Core-led HF will be safer, more organized, with broader support, than a rogue team."
834063940355235841,2017-02-21 15:35:14,"@theonevortex Even though bandwidth has grown 10x from when Bitcoin was started, and continues growing rapidly?"
834063705679732736,2017-02-21 15:34:18,"@Technom4ge @CharlieShrem I'm pro SegWit. But it isn't going to activate, it's not even close."
834063279072878592,2017-02-21 15:32:36,"@MrHodl @CharlieShrem I'd prefer if it was Core, but they continuously refuse to plan for such a thing."
834059579763863554,2017-02-21 15:17:54,Bigger blocks only leads to centralization if resulting increase in user growth+nodes &lt; loss of nodes due to bandwidth constraints. #bitcoin
834059036748300288,2017-02-21 15:15:45,.@bitcointechst @ShapeShift_io Already done with @bitcoinkeepkey. We'd love to work with @BitcoinTrezor too https://t.co/vlFmHf03Ai
834058698720935936,2017-02-21 15:14:24,@MrHodl @CharlieShrem I'm not scared of a planned HF that is minimally contentious. I'm more scared of HF due to split community.
834054324091228161,2017-02-21 14:57:01,".@CharlieShrem We need both! They aren't mutually exclusive, but in fact mutually beneficial."
833841277120692225,2017-02-21 00:50:27,@CharlieShrem New person would be utterly confused at that... and wouldn't know to do that anyway
833841100523712512,2017-02-21 00:49:45,"@Technom4ge So do credit cards and banks. ""Merely working"" shouldn't be our standard of quality."
833838762878726145,2017-02-21 00:40:27,"@taidi_ji ""General public"" will never have a good understanding of hard forks. Do they understand levered short ETFs that rebalance daily?"
833834818060300288,2017-02-21 00:24:47,"When prices move, people hasten to name a reason. Often, the reason is ""thousands of individual decisions were made in a complex system."""
833834526652633090,2017-02-21 00:23:37,@taidi_ji So don't buy COIN then. Doesn't mean it should be prohibited from listing.
833806958419390467,2017-02-20 22:34:04,@baijorge @rogerkver @a3456gf @SooMartindale @JihanWu This topic deserves more than 140 chars: https://t.co/3qZx1yF4hl
833798799944462337,2017-02-20 22:01:39,"@baijorge @rogerkver @a3456gf @SooMartindale @JihanWu Did you really just say that users, adoption, utility are... ""distracting?"""
833768827464851456,2017-02-20 20:02:33,"@EdwardAMoncada @realDonaldTrump Oh... can you show me an ETF, equity, or market anywhere that cannot be ""manipulated?"""
833768680362225670,2017-02-20 20:01:58,"This site is cool for estimating Bitcoin tx fees, but show that to someone new and they will be utterly confused https://t.co/Xii71CHUcR"
833767887437455363,2017-02-20 19:58:49,@malimujo Because there aren't Chinese-based ETF's?  And Bitcoin is more stable than many ETF's.
833766210462425089,2017-02-20 19:52:09,"If I was SEC, Id think twice about rejecting Bitcoin ETF. Doing so may bring crosshairs of @realDonaldTrump admin, seeing harmful regulation"
833763580264722432,2017-02-20 19:41:42,@AaronIngalls Sometimes I do https://t.co/tL6QscgSwu
833533625517879296,2017-02-20 04:27:57,RT @mperklin: @ShapeShift_io: Typing a /command to see @CoinCap_io's price for any asset is Awesome. Fewer mental context switches = more p‚Ä¶
833471489064177665,2017-02-20 00:21:02,Democracy: The God That's Failing | Zero Hedge https://t.co/xLzuXkgA0L
833036330447859712,2017-02-18 19:31:52,It‚Äôs Official: ‚ÄòBitcoin Congressman‚Äô Mulvaney is U.S. Budget Chief https://t.co/bQ51Y3lQZT
832387851283214340,2017-02-17 00:35:03,@digitsu @seweso @Technom4ge Ummm no. Most Eth Classic supporters simply prefer that chain and believe it will be more successful long term.
832336164958908417,2017-02-16 21:09:40,"@eric_lombrozo @prieff You've been much better and more helpful than most, communication among disparate parties is hard."
832335370624913409,2017-02-16 21:06:31,"@eric_lombrozo Are miners not also nodes? If 80% of miners went with one chain, you think no other nodes/users would follow?"
832335177795895296,2017-02-16 21:05:45,@AlpacaSW @vakeraj @Technom4ge @Tom_Horvath The most popular coin people buy via ShapeShift is Bitcoin.
832334570875916288,2017-02-16 21:03:20,"@eric_lombrozo @prieff But seemingly less effort on bringing competing interests together, so that deployment actually happens."
832334386917957633,2017-02-16 21:02:36,"@vakeraj @AlpacaSW @Technom4ge @Tom_Horvath Your analysis is adolescent. Bitcoin falling harms entire industry, and BTC is our most pop coin"
832333888026472448,2017-02-16 21:00:37,"@eric_lombrozo Deciding which chain to mine on = deciding the rules, no?"
832317158118010881,2017-02-16 19:54:08,Bitcoin-supporter just confirmed by Senate as Trump's Budget Chief.  https://t.co/GtAoZi2KGT (and limits on military budget?! bonus!)
832316058249854979,2017-02-16 19:49:46,@prieff I'd love for SegWit to be activated immediately.
832315908341321728,2017-02-16 19:49:10,"@vakeraj @AlpacaSW @Technom4ge @Tom_Horvath Lol okay troll, and saying ""He profits off Bitcoin splitting"" is not completely unverifiable?"
832315641990434817,2017-02-16 19:48:07,"@tdh052883 @BarackObama @realDonaldTrump LOL sure. More protectionist nonsense from Trump, trade taxes, etc."
832315457520680960,2017-02-16 19:47:23,"@AlpacaSW @vakeraj @Technom4ge @Tom_Horvath Depends on reason and nature of the split, and the timeframe examined."
832312737883643909,2017-02-16 19:36:34,@vakeraj @AlpacaSW @Technom4ge @Tom_Horvath I also own some Bitcoin. I profit more than anything from Bitcoin appreciation.
832312193379160064,2017-02-16 19:34:25,"@prieff Are full blocks, delayed transactions, high and uncertain fees, and a difficult user experience bad?"
832267836613591040,2017-02-16 16:38:09,"@MartyBent @Technom4ge @Tom_Horvath ETH is no longer mired in internal arguments, and its price actually increased more than BTC in 2016."
832267480865370113,2017-02-16 16:36:44,"@Technom4ge @Tom_Horvath Then the risk is loss of adoption on the platform. Strange to worry about decentralization risk, but not user loss"
832267290590707712,2017-02-16 16:35:59,@MartyBent @Technom4ge @Tom_Horvath SegWit isn't happening without a change or concession to portion of community that also wants HF.
832267129223278592,2017-02-16 16:35:21,"@Technom4ge @Tom_Horvath It's always ""the other side"" that is being political, after all."
832266971269955584,2017-02-16 16:34:43,"@MrHodl @KurtMeadows @Technom4ge Sorry to break it to you, but if 51% of miners desire a different ruleset, the ruleset will change."
832264763338084352,2017-02-16 16:25:56,"@WhalePanda A tweet saying ""chinese miners"" is not convincing evidence imo"
832264568948793344,2017-02-16 16:25:10,"@MrHodl @KurtMeadows @Technom4ge Well we disagree about that. I think a HF is inevitable. Or, people will start leaving the platform."
832264331828002817,2017-02-16 16:24:14,"@Tom_Horvath @Technom4ge If one is not organized and planned for by Core, there will be a contentious one in the future, much more dangerous"
832264186394710016,2017-02-16 16:23:39,"@MrHodl @KurtMeadows @Technom4ge Only a majority needs be convinced, and a majority desire SegWit + 2 to 8mb Block increase."
832263866788741120,2017-02-16 16:22:23,"@Technom4ge Yep, I want it to activate. And that won't happen without a guarantee of a HF block increase thereafter."
832263716192264193,2017-02-16 16:21:47,"@Technom4ge  Bandwidth is increasing rapidly, globally, yet blocks have been capped at arbitrary round number of 1MB."
832263367964364800,2017-02-16 16:20:24,"@MrHodl @KurtMeadows @Technom4ge If possible, code SegWit to include a flag day on which the HF will activate"
832263158924455936,2017-02-16 16:19:34,"@Tom_Horvath @Technom4ge All the more reason why Core should work to responsibly organize one, instead of contentious community split."
832262800009469953,2017-02-16 16:18:08,@WhalePanda  Source/citation?
832262632069595138,2017-02-16 16:17:28,"@MrHodl They're made up, but...sure?"
832262384060362752,2017-02-16 16:16:29,@Technom4ge Agreed fully.
832262193513103364,2017-02-16 16:15:44,"@SaltMashPotatoe @blockchain Instead of 3-4 big pools we now have 10+... and each pool is not ""one miner"" but thousands of independents."
832261605643677696,2017-02-16 16:13:24,@KurtMeadows @Technom4ge SegWit today with guarantee of HF with 4-8MB block within 12 months.
832261300164165632,2017-02-16 16:12:11,"@Technom4ge Goal isn't to keep blocks ""not full ever."" Goal is to buy more time with on-chain scaling while layer 2 is deployed."
832261086204293124,2017-02-16 16:11:20,"@Technom4ge Sure, that's probably true. But then, why not have 100kb block cap?"
832260744137830403,2017-02-16 16:09:58,"In the almost six years I've been involved in Bitcoin, mining has never been more decentralized than it is today.  https://t.co/0MAfZXa0SQ"
832252661605027844,2017-02-16 15:37:51,"@BestBitcoinEx @imgur Where did you get the ShapeShift data? What is being measured, exactly?"
832248556341907456,2017-02-16 15:21:32,The Parable of Alpha (or why Bitcoin maximalists should care about full blocks) - https://t.co/3qZx1yF4hl
832248041142882305,2017-02-16 15:19:30,@vakeraj @reason How are those things mutually exclusive? Troll harder pls
832247784900272129,2017-02-16 15:18:28,@naval Perhaps there is something subconscious among peoples in such areas which allows them to be more accepting of liberty.
832247343189745665,2017-02-16 15:16:43,Click the 2-year chart of Bitcoin price. Can only be described as #winning. https://t.co/leaQS6LNqa #finance #forex
832242537742077952,2017-02-16 14:57:37,"Inspiring EconTalk episode with Jim Epstein, discussing Bitcoin's role in Venezuela.

https://t.co/9d0wgq2ge8 #bitcoin #blockchain #finance"
832043645419270144,2017-02-16 01:47:18,"United States falls again, is now ranked 17th in economic freedom. #LandOfTheFreeLOL 

https://t.co/xJ73dqW9VS"
831987093391945728,2017-02-15 22:02:35,Venezuela's Peer-to-Peer Bitcoin Trade Volume Surges. https://t.co/yF2Ratj5D4
831977833119506439,2017-02-15 21:25:47,"Join the @ShapeShift_io community Slack:  https://t.co/vOUa0c8pPZ   Service updates, bugs, customer support, anything you need!"
831925030477058052,2017-02-15 17:55:58,"RT @el33th4xor: Get your pitchforks and troll armies ready! We have a new post on the State of the Bitcoin Network. 
https://t.co/r6uAJUEs6‚Ä¶"
831556497125568513,2017-02-14 17:31:33,"All three of Japan's biggest banks are now investors in Japan's largest Bitcoin exchange, bitFlyer https://t.co/QXBlUeS1mW @bitFlyer"
831542779486552064,2017-02-14 16:37:02,@TaylorGerring Why doesn't everyone understand that simple truth? :(
831525720631496704,2017-02-14 15:29:15,"Hate Trump? Learn to use Bitcoin, PGP email and end-to-end encrypted chat apps. Privacy in your affairs will frustrate Trump to no end."
831520551575355392,2017-02-14 15:08:43,‚ÄúVR is a Killer App for Blockchains‚Äù by @FEhrsam https://t.co/vLLPKgB10J
831519559115014144,2017-02-14 15:04:46,"JP Morgan, Santander Said to Join New Ethereum Blockchain Group https://t.co/p8UZli0rJv via @CoinDesk"
831303891882999808,2017-02-14 00:47:47,"@eric_lombrozo @viajeroloco13 @NickSzabo4 Thats disingenuous. It is also the exact same thing that ""opposition"" says about Core. Not helpful"
831303715084759041,2017-02-14 00:47:05,"@viajeroloco13 @eric_lombrozo @NickSzabo4 SegWit, unfortunately, is simply not going to happen in the current environment."
831303289060868096,2017-02-14 00:45:23,@viajeroloco13 @eric_lombrozo @NickSzabo4 ummmm because the SegWit SF is contentious mainly because other side also wants HF to bigger block
831303001994313728,2017-02-14 00:44:15,@vakeraj @eric_lombrozo @Codiox @NickSzabo4 Because many of us don't want a highly contentious fork that splits the community.
831302878514003968,2017-02-14 00:43:45,"@taidi_ji @eric_lombrozo Saying something is ""just about politics"" is a phrase I often hear politicians say."
831301719313223680,2017-02-14 00:39:09,@taidi_ji @gavinandresen There's not enough block space to enable any degree of widespread lightning use.
831301550945476608,2017-02-14 00:38:29,"@eric_lombrozo @Codiox @NickSzabo4 Not a valid point Eric... 1MB blocks is not a law of nature, but a technical/social/political decision."
831301195776061440,2017-02-14 00:37:04,"@viajeroloco13 @eric_lombrozo @NickSzabo4 IMHO a HF is inevitable. I'd like it to be minimally contentious, and for Core to steward it."
831299327721164801,2017-02-14 00:29:39,@theonevortex @Bitcoin_Win I agree SegWit is valuable and should be adopted asap.
831299038607716352,2017-02-14 00:28:30,"@eric_lombrozo @weex @NickSzabo4 @elianto_nL And what of the risk of lost &amp; angry users, competing platforms, and delayed adoption?"
831297524791181316,2017-02-14 00:22:29,"@eric_lombrozo @weex @NickSzabo4 @elianto_nL I'm unconvinced a 2-4MB block = lost sovereignty. Less adoption, however, does."
831293557021491200,2017-02-14 00:06:43,@Awyee707 @AlpacaSW ...kinda like Bitcoin in 2011
831293310555869184,2017-02-14 00:05:44,@NickSzabo4 @elianto_nL @eric_lombrozo My self-acknowledged deficiency in technical prowess was responsible for which error in my blogs?
831291774928826368,2017-02-13 23:59:38,@eric_lombrozo @NickSzabo4 @elianto_nL I don't think anyone is suggesting Bitcoin's base layer shouldn't be ultra secure.
831290838781140993,2017-02-13 23:55:55,"@AlpacaSW Yes that's what I am bothered by, thanks for understanding."
831290705431629824,2017-02-13 23:55:23,"@Awyee707 @AlpacaSW ...meanwhile ShapeShift processed $20m in orders in January, up 900% in 2016."
831290430507589632,2017-02-13 23:54:17,"@AlpacaSW @SrBitcorn @MrHodl The state of play right now suggests SegWit will not activate at all, unfortunately. It isn't even close."
831290226077229056,2017-02-13 23:53:29,@NickSzabo4 @elianto_nL @eric_lombrozo Bitcoin: A Peer-to-Peer Long-Term Savings System?
831277418379870208,2017-02-13 23:02:35,@SrBitcorn @MrHodl @AlpacaSW LN appears 1-3 years off in any commercial capacity. I'll welcome it with both arms when it actually arrives.
831277248158248960,2017-02-13 23:01:55,"@AlpacaSW Did I recommend Bitcoin ""support all use cases?""  No. I'm advocating that people appreciate the loss due to rising costs."
831254119566413825,2017-02-13 21:30:00,"@BlueDavid Can not a ""flag day"" HF, endorsed/supported by Core, be prepared?"
831230159734894592,2017-02-13 19:54:48,"Debasement... a ""feature"" of fiat that always becomes its demise   https://t.co/0g5OlGKtUw"
831229793085562882,2017-02-13 19:53:20,"@BlueDavid There is no ""meantime LN""... that's years away. SegWit won't pass without guarantee of HF."
831227367033012225,2017-02-13 19:43:42,"@BlueDavid Then that's not really a path, is it? Potential real path: SegWit + Guaranteed HF to bigger block, then LN later."
831227051021570050,2017-02-13 19:42:27,@Beautyon_ @MrHodl @eric_lombrozo Beautyon I encourage you to draft a real response to my points made. What's wrong with my reasoning?
831220357084360707,2017-02-13 19:15:51,"@SooMartindale I don't understand what you're talking about... are you saying I have a conflict due to LN hubs? What are ""SC products?"""
831218632558514176,2017-02-13 19:08:59,@SooMartindale ...what are you talking about?
831217378109358080,2017-02-13 19:04:00,@eric_lombrozo @Ferdinando1970 Agreed... let's do both.
831214701275127808,2017-02-13 18:53:22,@SooMartindale What's the conflict of interest?
831210359918821376,2017-02-13 18:36:07,"@eric_lombrozo Agreed it doesn't allow at ""large"" scale. But larger-than-current scale is absolutely possible, withheld by arbitrary limit."
831210083698737152,2017-02-13 18:35:01,"@eric_lombrozo Agreed 100%. Would help if some capacity room while we worked on those layers, no? SegWit + HF 4MB block, 4 example ;)"
831209317273653248,2017-02-13 18:31:59,@Ferdinando1970 Soooo AlphaCoin's own development and virtue has no influence on the outcome?
831208140020600833,2017-02-13 18:27:18,@MrHodl @AaronSchaar @AlpacaSW First true statement I've seen you make.
831207978430824449,2017-02-13 18:26:39,".@eric_lombrozo If it's not fast and cheap, then it's only about ""financial sovereignty"" for the wealthy."
831207220645941253,2017-02-13 18:23:39,@MrHodl @AaronSchaar @AlpacaSW Not silent... https://t.co/3qZx1yF4hl  Keep your head in the sand. You're not helping Bitcoin.
831205072486952960,2017-02-13 18:15:06,More thoughts on Bitcoin transaction costs and game theory: The Parable of Alpha  https://t.co/3qZx1yF4hl #bitcoin #blockchain #scale
831199543450537988,2017-02-13 17:53:08,@vakeraj @AlpacaSW @arronschaar @MrHodl Strawman. Nobody thinks that.
831199217762840576,2017-02-13 17:51:51,@vakeraj @jptrophardy @arronschaar @MrHodl @AlpacaSW You clearly have no idea how much money I lose if Bitcoin falls in price. Rethink.
831168617819549700,2017-02-13 15:50:15,RT @ErikVoorhees: The True Cost of Bitcoin Transactions | Money and State   https://t.co/BQynfsjuA8 #bitcoin #blockchain
831167293572931586,2017-02-13 15:44:59,"@MrHodl You have zero conception of the transactions that aren't happening, and uses that no longer happen because they've been priced out."
831166633674731520,2017-02-13 15:42:22,"@MrHodl @Piotr14Tra Nice chart. Try showing one from 3 year period, which I stated, using $ paid per avg tx, not btc per kb."
831165496317845504,2017-02-13 15:37:51,"@AlpacaSW The argument isn't that the TXs u see are not valuable for their senders. Rather, other potential txs are leaving the platform."
831164970926796803,2017-02-13 15:35:46,"@AlpacaSW More people today are getting more value from Bitcoin, correct. That doesn't refute my point."
831164706878521344,2017-02-13 15:34:43,"@pitwuu @Piotr14Tra They go higher due to supply/demand for block space, and the higher they go, the smaller the sphere of use-cases."
831164407283666944,2017-02-13 15:33:31,"@MrHodl @Piotr14Tra Sure, but in past 3 years, fees have gone from &lt;$0.01 to &gt;$0.50. This isn't explained by BTC price increase."
831163043321085953,2017-02-13 15:28:06,"@AlpacaSW False. Cut max block size in half and fees will soar. Doesn't mean anyone is ""finding more value."" Quite the opposite."
831162862169112576,2017-02-13 15:27:23,"@AlpacaSW Umm not correct. Prices can rise for other reasons. Set blksize to 500kb for example, price up, usage down."
831162372014428163,2017-02-13 15:25:26,@Piotr14Tra You mean the higher the aggregate fees. 10k txs at $0.10 fee is more secure than 1k txs at $0.30 .
831160508992589824,2017-02-13 15:18:02,"There is no ""correct"" fee for a Bitcoin transaction. But the higher it gets, the less useful the system becomes."
831152319546933249,2017-02-13 14:45:29,The revolution will not be centralized. https://t.co/9L22obeXeh
830971588799582208,2017-02-13 02:47:20,Good choice: Trump's VP Pence hires libertarian Mark Calabria as chief economist  https://t.co/1rBvdI8CBK
830816674710437888,2017-02-12 16:31:45,@TheBlueMatt I read your post from a year ago. That's the kind of sentiment we need more of from all sides.
830814993771814912,2017-02-12 16:25:04,@vakeraj Do you know what marginal costs are? Mining/electricity/inflation are not marginal costs of user transactions.
830808906242867202,2017-02-12 16:00:53,@vakeraj My analysis was on the marginal cost per transaction (ie - the cost suffered directly by user for each incremental tx she makes)
830542265080754176,2017-02-11 22:21:21,@Bitcoin_Embassy @marcoagner Bitcoin has many value props to dif people. But it is losing some of them.
830542026424844289,2017-02-11 22:20:24,"@ponli137 and if others came to their senses, a planned HF w bigger block would guarantee SegWit acceptance."
830541703870242816,2017-02-11 22:19:07,"@Bitcoin_Embassy @LarryBitcoin @marcoagner Correct that compromise not always good. Not always bad, either. ""Decentralization"" is a gradient"
830538496989360129,2017-02-11 22:06:22,"@juscamarena https://t.co/kmh1GuV9Jq We do run into same issue w bigger blocks, eventually, but it buys time for LN &amp; layer2 solutions"
830534719527870464,2017-02-11 21:51:22,@TheBlueMatt Link? I respect your opinion and would love to read it
830534606139097088,2017-02-11 21:50:55,@juscamarena @sajmathieu It's easy to find specific txs that still make economic sense. But it's also easy now to find many that don't.
830534334184558593,2017-02-11 21:49:50,"@juscamarena @sajmathieu Why misleading? My argument is that the community is not considering harm to real, human users."
830534121399128064,2017-02-11 21:48:59,"@WhalePanda @ziggamon I probably run one or two of those nodes myself. I bet if an HF was planned/incoming, I'd upgrade."
830533905237344257,2017-02-11 21:48:08,"@juscamarena @sajmathieu Yes, a USD (or percentage) view of fees, because that's how actual users perceive it."
830533707035455489,2017-02-11 21:47:20,"@juscamarena @sajmathieu My argument is that from the point of a human user, the UX is degrading. Only a machine cares about sat/byte."
830533209884651520,2017-02-11 21:45:22,@TheBlueMatt Have you posted anywhere about your preferred path forward?
830533143614590976,2017-02-11 21:45:06,"@TheBlueMatt Yes, would love to! Requires parties to be civil and kind again, open to compromise, and forgiving of the past."
830532291478827009,2017-02-11 21:41:43,".@ziggamon Personally, I'd like to see SegWit + a guaranteed flag to hardfork X months later to 2-8MB block. Would buy 2-3 yrs, then LN."
830530129491267584,2017-02-11 21:33:08,@sajmathieu Did you even read my post?
830528042049101824,2017-02-11 21:24:50,@sajmathieu You're struggling really hard to avoid the points in my post...
830527748779147264,2017-02-11 21:23:40,"@marcoagner I'm a big fan of SegWit and LN. But the former won't happen without a HF block increase, an LN is 2-3 years away."
830522349850128388,2017-02-11 21:02:13,@sajmathieu Which I have always supported. Next snarky remark please
830521776945975297,2017-02-11 20:59:56,"@juscamarena @sajmathieu Who is free riding? And is your summary of my post that ""free riding is the solution?"""
830521542643740673,2017-02-11 20:59:00,"@marcoagner How about Bitcoin has scalability issues, finds compromise solutions to fix it, Bitcoin keeps growing?"
830521266369134592,2017-02-11 20:57:54,@juscamarena @sajmathieu I guess youre content to wait around for that to happen.
830521107618873345,2017-02-11 20:57:17,@sajmathieu or alleviate the constraint of 1 MB blocks by a conservative amount to buy time for LN...
830520798712565760,2017-02-11 20:56:03,@sajmathieu Feel free to draft a blog post outlining your thoughts. Id be happy to read it.
830520464900517888,2017-02-11 20:54:43,@sajmathieu people eventually go to a different club
830518665309196288,2017-02-11 20:47:34,@sajmathieu And what happens when 10 transactions occur per second?
830517201111248896,2017-02-11 20:41:45,"@juscamarena @hernzzzzzz So Bitcoin fee is ""proper"" and everything else is ""improper"""
830516111343026176,2017-02-11 20:37:25,"@bananenwilly @ShapeShift_io Energy costs are not a marginal cost of a transaction, so im not incl. that in this analysis."
830511847459676162,2017-02-11 20:20:29,The True Cost of Bitcoin Transactions | Money and State   https://t.co/BQynfsjuA8 #bitcoin #blockchain
830469979694825474,2017-02-11 17:34:07,"@Piotr14Tra @kyletorpey @keonne Dude wake up, SegWit isn't activating, unfortunately, because a portion of community also wants HF."
830469529465663488,2017-02-11 17:32:19,"@kyletorpey @MrHodl @eric_lombrozo everyone keeps making fun of other cryptos, meanwhile they are nibbling at Bitcoin's lunch."
830469308153217024,2017-02-11 17:31:27,"@kyletorpey @keonne My point was that some of Bitcoin's utility is being lost due to scale issue, that's all. It's unfortunate to see."
830469117375295489,2017-02-11 17:30:41,".@benvh  You can buy anything on Amazon with ETH for example, via Purse.io (which integrated ShapeShift's Shifty Button)"
830468751007039488,2017-02-11 17:29:14,"@eric_lombrozo @MrHodl That assumes all other cryptos will have same scaling gridlock plaguing bitcoin's community, which isn't true."
830468578155622401,2017-02-11 17:28:33,@kyletorpey @keonne I don't condone fiat and try to avoid it whenever possible.
830468308763811844,2017-02-11 17:27:28,@Piotr14Tra @sajmathieu @nederhoed I love all those. Let's also do a planned HF to larger blocksize so SegWit can actually happen.
830467684303302656,2017-02-11 17:24:59,@MrHodl Right because that's way easier than just holding some Ethereum.
830467551956172802,2017-02-11 17:24:28,"@CambodiaBitcoin I was somewhat agnostic on the ETH hardfork. I could argue it either way, and to date, I'm unconvinced it was wrong choice."
830467265892122625,2017-02-11 17:23:20,"@giacomozucco @sajmathieu @jgarzik I grow tired of people assuming digital assets can't be stores of value. They are, and not just BTC."
830467018897907712,2017-02-11 17:22:21,"@eric_lombrozo @MrHodl That's an academic way of looking at it. In reality, I'm a user, and I'll use what is cheaper/faster/more reliable."
830466864190984194,2017-02-11 17:21:44,@vakeraj @keonne perhaps I'm just not so myopic as to assume everyone uses this technology for the same use case.
830466558111653889,2017-02-11 17:20:31,"@giacomozucco Well, the infrastructure is leaking users and utility to alternatives. Maybe you don't care about that? I do."
830466275881152512,2017-02-11 17:19:24,"@keonne I use many wallets, core, exodus, jaxx, blockchain, electrum, trezor, and keepkey. A $0.50 fee is too much for a $4 payment."
830465959953563650,2017-02-11 17:18:08,"@vakeraj @keonne I'm not, but keep your head in the sand if it's more comfortable there. A portion of use-cases are slipping away from BTC."
830465547884232704,2017-02-11 17:16:30,"@sajmathieu I understand that. Too little space for txs. Thus, I am increasingly using an alternative platform."
830465015719264256,2017-02-11 17:14:23,"@sajmathieu @jgarzik You're not very creative are you. I don't convert each time, I buy a bunch of ETH and hold for occasional payments."
830464627385442305,2017-02-11 17:12:51,"@sajmathieu @ShapeShift_io 90% of my net worth is in Bitcoin, if anything, I've been biased to refrain from the comment I just made."
830464318063902721,2017-02-11 17:11:37,@MrHodl Keep yelling and being a dick instead of addressing the problem... Bitcoin is becoming uneconomical for a portion of txs.
830464024273940481,2017-02-11 17:10:27,"@britesense @Beautyon_ @giacomozucco I just told you I am using it for some portion of payments. That's a fact, does it bother you?"
830463797718577154,2017-02-11 17:09:33,".@hernzzzzzz person to person payments (to friends), and sometimes on Purse.io via Shifty Button (buy anything on Amazon with any coin)"
830463553589096448,2017-02-11 17:08:35,@hernzzzzzz @Piotr14Tra I'm not converting for every tx. I'm buying a chunk of ETH to hold and pay with over time.
830462581441708032,2017-02-11 17:04:43,"@sajmathieu @nederhoed I don't want to spend 0.001 BTC on a tx fee for a $5 purchase when, in 3 years, that fee will be worth $10-20 itself"
830252706656841730,2017-02-11 03:10:45,@giacomozucco ...because we want Bitcoin to feel like the internet in the '80s? This is Bitcoin and it's 2017. Let's make a good product.
830200084902113280,2017-02-10 23:41:39,@giacomozucco lol you think I'm going to bother figuring out payment channels for a $5 payment to a friend?
830197808573587457,2017-02-10 23:32:36,"I'm finding myself holding some extra ETH to use as payments, since Bitcoin is becoming too expensive/delayed :("
830175738494062597,2017-02-10 22:04:54,RT @ShapeShift_io: Get this on your Slack! The /command-line digital asset monitor powered by @CoinCap_io https://t.co/T7hxjeA21v
829886278011408384,2017-02-10 02:54:41,Winklevoss Bitcoin ETF Offering Expands to $100 Million https://t.co/6ipFCnu8e9 via @CoinDesk
829793217759555589,2017-02-09 20:44:54,9/11 Mastermind‚Äôs Letter To Obama: Here‚Äôs Why We Attacked America | Zero Hedge https://t.co/0uNnBy65cE
829791375373770752,2017-02-09 20:37:35,How China Sinks Bitcoin https://t.co/lOeaOihSCk
829209966925975554,2017-02-08 06:07:16,Countdown: Bitcoin Will Be a Legal Method of Payment in Japan in Two Months https://t.co/SArX1wh1Zw via @BTCTN
829143261843320832,2017-02-08 01:42:13,"With Deadline Looming, Will The SEC Approve A Bitcoin ETF? via @forbes https://t.co/kx78TV8Rvp"
829022330135396352,2017-02-07 17:41:40,Hooked up my microwave to display the Bitcoin price https://t.co/vuB9eA2CUQ
828854934829408256,2017-02-07 06:36:30,@JamesGDAngelo Which group in society doesnt love having less of their property stolen each year?
828854082886627328,2017-02-07 06:33:07,"The US has over 175,000 pages of Federal Regulations. And libertarians are called crazy."
828853133619118080,2017-02-07 06:29:21,"@LuxBitcoin Obviously you didnt read the article, or cant math very good"
828732818213724166,2017-02-06 22:31:15,SEC Faces March 11 Deadline For Bitcoin ETF Decision https://t.co/XfS7QxBniT
828627708477325313,2017-02-06 15:33:35,"If Bitcoin ETF approval ignites speculative rush, doesn't that prove intense latent demand, blocked only by the SEC?"
828627236504866816,2017-02-06 15:31:42,"Wall St Journal: As bitcoin ETF nears, analysts warn of trading frenzy  https://t.co/YVYBwAweHO via @WSJ #finance #etf #forex #blockchain"
827574698926039041,2017-02-03 17:49:18,.@r0d3n7s @ShapeShift_io https://t.co/RRZG2JAcSB @aantonop
827564237232959495,2017-02-03 17:07:44,"@r0d3n7s @ShapeShift_io Actually customer support is run by a lady, Megan. But even she is gentlemen."
827557819578773504,2017-02-03 16:42:14,"""Therefore the only way to attack the network is to invest in it"" https://t.co/ri6c7nMYHq #bitcoin #infosec #cyberbetter @realDonaldTrump"
827555627840966657,2017-02-03 16:33:31,"@r0d3n7s @ShapeShift_io Thank you Winston, it makes our day to hear that :)"
827328897779802112,2017-02-03 01:32:34,"RT @bitcoinkeepkey: @BitcoinReasons Download the public beta release: https://t.co/oxHZoJvK6f 
Then you can use our @ShapeShift_io integrat‚Ä¶"
827317514896031746,2017-02-03 00:47:21,Nigeria: An In-Depth Look at Using Bitcoin in a Currency Crisis https://t.co/B9eHjXbBw4
827284606927790085,2017-02-02 22:36:35,"Growth of an industry: Bitcoin hits $1000, and @ShapeShift_io sees record volume in Jan, processing over $20m in orders (up 30% MoM)"
827284162847481862,2017-02-02 22:34:49,@mcrsqr @Rare Certainly. But both should be pointed out and remedied.
827274999614435329,2017-02-02 21:58:24,You didn‚Äôt care when Obama did it https://t.co/WoVpxN9Ri4
827200282929029120,2017-02-02 17:01:30,"Swiss Federal Council takes steps to deregulate fintech, enabling more competition and innovation in finance https://t.co/mULKD2MtPW"
827197266440093696,2017-02-02 16:49:31,"And boom, there it is!  https://t.co/wHjPl4FA5T #bitcoin https://t.co/TXT8Spl2aQ"
827195076342403074,2017-02-02 16:40:49,.@ChristopherA Great to meet you at the Roundtable! Thank you for the amazing work you've done over the past decades.
827175859689660416,2017-02-02 15:24:27,"Cool piece in New Yorker about wealthy preppers ""Technology rewards the ability to imagine wildly different futures"" https://t.co/USNqjfmZWT"
826946521413324802,2017-02-02 00:13:09,Bitcoin's going over $1000 tonight.
826877687268401160,2017-02-01 19:39:37,RT @jilevin: Barack Obama vs. Benjamin Franklin https://t.co/yrDr6UvOe9
826877598114263043,2017-02-01 19:39:16,"Holding some Bitcoin is, in part, an opt-out of that crazy political system you see all around you. An escape of tyranny through technology."
826559635737935873,2017-01-31 22:35:48,Great KPI's of Bitcoin since its creation:  https://t.co/ijpmJk9Tet #growth #finance #tech #blockchain
826536759257419777,2017-01-31 21:04:54,"RT @ShapeShift_io: The @mineboxHQ presale starts next Monday, Feb 6th! Read more about our partner here: https://t.co/5l2RSMVcgM https://t.‚Ä¶"
826491031185215488,2017-01-31 18:03:11,Hardware Bitcoin Wallet TREZOR Adds Dash and Zcash Support https://t.co/G13oteTN3z
826473167199813633,2017-01-31 16:52:12,".@GeminiDotCom we're glad to see you supporting 0-conf, but you weren't the first digital asset exchange to do so. https://t.co/CkSLNgnsQL"
826445327049842688,2017-01-31 15:01:35,.@asymmetricalpha Social Security is a pyramid scheme. The Fed and central banking generally is just an outright scam.
826444601124876290,2017-01-31 14:58:42,"@The_Stogie_Era @ShapeShift_io Sorry to hear that, can you open a ticket and we'll make sure you're taken care of https://t.co/L1dsEPWetG"
826182421884329985,2017-01-30 21:36:53,The irony is amazing hahahaha... Federal Reserve Staffer Fined for Mining Bitcoins at Work https://t.co/byiPQCHFDB via @CoinDesk
826156818850267136,2017-01-30 19:55:09,"Trump does something good: Signs executive order requiring that for every one new regulation, two must be revoked https://t.co/D1dQMMg21W"
826151195010072577,2017-01-30 19:32:48,@eric_lombrozo @lopp Coercion is nowhere in Bitcoin development. Coercion implies violence or threats of violence.
826108335866933249,2017-01-30 16:42:30,".@lopp They don't get left behind, they just don't get their preferred blocksize cap. Kinda like how that 80% currently feels."
826102149528559616,2017-01-30 16:17:55,Luke-jr's straw poll suggests over 80% would consent to a hard fork over &gt;1MB blocksize by summer '18  https://t.co/BD0sNNioOG #bitcoin
826090259020656641,2017-01-30 15:30:40,"CoinCenter: ""Bitcoin innovators need legal safe harbors"" https://t.co/slbkArqJ9c #blockchain"
825946285186379777,2017-01-30 05:58:34,"RT @gavinandresen: If you feel disempowered because bad people are in charge, maybe the problem is the system that gives those people power‚Ä¶"
825714902824284160,2017-01-29 14:39:08,Western Union vs Bitcoin  https://t.co/IL5pogBE2T
825411731442827265,2017-01-28 18:34:26,RT @CharlieShrem: I was arrested 3 years ago today. Thank you for being supportive during our hardest times. I love all of you. Toast to li‚Ä¶
825380446372556800,2017-01-28 16:30:07,Can't stop loving Exodus https://t.co/dIkdH5oR1j  @exodus_io #bitcoin #ethereum #dash #litecoin #dogecoin
825372309544431616,2017-01-28 15:57:47,"Private blockchains will offer some marginal benefits to specific parties, while public blockchains will change the world. #bitcoin"
825370126094577666,2017-01-28 15:49:07,"ShapeShift‚Äôs Erik Voorhees and Michael Perklin: How to Remove ‚ÄúGod Mode"" https://t.co/AqmqfGTTvi via @Cointelegraph @shapeshift_io"
825082628726542338,2017-01-27 20:46:42,"Michael Perklin joins ShapeShift as Security Chief, describes ""Year of Blockchain"" https://t.co/O8x5BtAMIy #bitcoin #ethereum @ShapeShift_io"
824821707500306433,2017-01-27 03:29:54,Falkvinge: My impressions of Satoshi Roundtable ]I[ https://t.co/E8Urjcs0Vc via @Falkvinge #bitcoin
822974617438523392,2017-01-22 01:10:13,Fortune: Why Coinbase's cofounder is moving on https://t.co/3Gd4RxpEob #bitcoin
822851174491680768,2017-01-21 16:59:42,@MethodLead @feeonline That is specifically the wrong question to ask... as conveyed in the article itself.
822850872971563011,2017-01-21 16:58:30,"21's cool new app:  ""Earn bitcoin by doing simple tasks on your phone."" https://t.co/V9HR67txHY @21 #bitcoin"
822643069245853699,2017-01-21 03:12:46,What are the chances that a Muslim is a terrorist? https://t.co/WLWwhcI3qG
822622109025398784,2017-01-21 01:49:29,This is amazing. Turn the volume up. https://t.co/A1xNbOEt7D
822568321367371778,2017-01-20 22:15:45,‚ÄúSegWit: The Swiftest Safe Path Forward‚Äù by @lopp https://t.co/B5jj9hmAYL
822564516231835649,2017-01-20 22:00:37,Obama's legacy  https://t.co/neRVdE0GxT
822526473667911681,2017-01-20 19:29:27,@TheoBitcoin not seeing anything on skype... email me at erik at shapeshift dot io and I'll send signal number
822522115911864320,2017-01-20 19:12:08,RT @PanteraCapital: BitPay‚Äôs Bitcoin Transactions Reach an All-Time High - https://t.co/dJaEdWXZIn https://t.co/clrcHxLVEb
822522063428562946,2017-01-20 19:11:56,RT @alansilbert: BOOM #bitcoin https://t.co/0MHkJQS4rh
822504757159981060,2017-01-20 18:03:10,@jimmysong @realDonaldTrump Federal Budget
822504712188690435,2017-01-20 18:02:59,@brianchoffman @realDonaldTrump Are you implying that Trumps Federal budget will be smaller than 2016 under Obama?
822504506302795777,2017-01-20 18:02:10,@Humboldt4Sale @realDonaldTrump By Federal Budget
822500172043259906,2017-01-20 17:44:56,@brianchoffman @realDonaldTrump I'm referring to dollar cost of the Federal Government.
822500013829931011,2017-01-20 17:44:19,Anyone wanna bet that Trump won't even shrink the Federal Government by 1%? #Inauguration #TrumpInauguration @realDonaldTrump #MAGA
821138777406107649,2017-01-16 23:35:15,Amazing list of academic papers on Bitcoin &amp; blockchain technology https://t.co/zBa0v0M1k1
821031313847320576,2017-01-16 16:28:13,Coinbase CEO: IRS Battle Could Cost Startup $1 Million https://t.co/vl8QOFRZBZ via @CoinDesk
820740845032919040,2017-01-15 21:14:00,"@ramakanthgade I certainly don't know programming, so does that answer your question? :)"
820662806064353280,2017-01-15 16:03:54,‚ÄúVC predictions 2017‚Äù by @AlexRuppertVC at @EarlybirdVC https://t.co/1tjeG1hlvN #blockchain #bitcoin @shapeshift_io
820145504780746754,2017-01-14 05:48:20,RT @cannuch: yoooo! #bankinginbitcoin is now the #1 Documentary  üôèüèº for getting us there! @GravitasVOD #documentary get it now @itunes @Vim‚Ä¶
820144716301864960,2017-01-14 05:45:12,NASDAQ: What Is Bitcoin? Welcome To Digital Currency https://t.co/CkMc0sDvfl via @BitcoinMagazine @Nasdaq
820144349157662720,2017-01-14 05:43:45,Big fan of the new @blockchain logo https://t.co/q3mWH39GHV
819931134700253184,2017-01-13 15:36:30,"RT @Snowden: As he hands the White House to Trump, Obama just unchained NSA from basic limits on passing raw intercepts to others https://t‚Ä¶"
819687816770842624,2017-01-12 23:29:39,"RT @bchesky: Thanks for the 2,000 submissions. Most popular: Bitcoin, Guest Loyalty, upgraded homes &amp; services, group travel, things to do,‚Ä¶"
819379953011748864,2017-01-12 03:06:18,Video Bounty App Vevue Ditches Ethereum to Payout in Bitcoin https://t.co/1hPSwiLXL1 via @BTCTN
817067197478699008,2017-01-05 17:56:14,"Fred Wilson: ""Online Publishing Should Look At Steem, Not Spotify, For Inspiration"" https://t.co/IzRtf4j9Wu @steemit @fredwilson #blockchain"
817027276575559682,2017-01-05 15:17:37,Awesome pullback... load 'em up!!! #bitcoin
816668421140180992,2017-01-04 15:31:39,"Digital assets strongly rallying together today. It's a beautiful sight. Zero-sum, these are not. https://t.co/jIiIoMvaKq #bitcoin #ethereum"
816512212718206976,2017-01-04 05:10:56,"NYT: Bitcoin Price Soars, Fueled by Speculation and Global Currency Turmoil https://t.co/HkUUZNi84W #finance"
816449756276867072,2017-01-04 01:02:45,Why bitcoin just had an amazing year https://t.co/TMmRCTMGnh
816423966978015232,2017-01-03 23:20:16,"BitPagos, now Ripio, lands $1.9M to promote financial inclusion in South America using¬†bitcoin https://t.co/eyRtxi7Gkv via @techcrunch"
816393905235251200,2017-01-03 21:20:49,Infographic: Currency and the Collapse of the Roman Empire https://t.co/ZqQkuKxHGH via @Visualcap #fiat #USD #USA #empire #EndTheFed
816375116158287872,2017-01-03 20:06:09,@theonevortex @ShapeShift_io However... thank you for the kind words about the site. We think the model is really important.
816375007286677504,2017-01-03 20:05:43,@theonevortex @ShapeShift_io I've advocated interesting digital assets since I first got into Bitcoin. Your issue is the maximalism.
816335339795152896,2017-01-03 17:28:06,@metageg @cjdcosta @CharlieShrem What's illegal about buying/selling monero?
816328611909238784,2017-01-03 17:01:22,@metageg @cjdcosta @CharlieShrem Well test the theory by spending $10k to try and manipulate it.
816328336238661632,2017-01-03 17:00:16,"If you care about consumer protection, don't force them to put themselves at risk. https://t.co/cH6yJvSyjW"
816323726211944448,2017-01-03 16:41:57,@cjdcosta @CharlieShrem No you couldn't.
816310698477309953,2017-01-03 15:50:11,"@cjdcosta @CharlieShrem Over $17m of XMR volume in past 24hrs on Poloniex alone. Not ""relatively easy"" to push that up 15%"
816303353202348032,2017-01-03 15:21:00,"ShapeShift's protection of users featured in American Banker today ""Customer Data Is a Liability"" https://t.co/4OzY7rbzSR #bitcoin #privacy"
816142912790659077,2017-01-03 04:43:28,Monero just overtook Litecoin as 4th most valuable digital asset https://t.co/2JZAgbHdE1  #XMR #LTC #bitcoin #blockchain
816139811253813248,2017-01-03 04:31:08,The Guardian - ‚ÄúDigital currency outperformed all central-bank-issued counterparts in 2016 with 125% gain‚Äù https://t.co/thZ3yJzr9w #bitcoin
815731060201947136,2017-01-02 01:26:54,Proof that it's not a fixed pie: The Top 7 Cryptocurrencies All Gained in 2016 https://t.co/ni3Naz6l1M via @CoinDesk @ShapeShift_io #bitcoin
815632846106849280,2017-01-01 18:56:38,$1000!!!!!!!!!  What a way to start 2017.  #Bitcoin
815621993546579968,2017-01-01 18:13:31,"Good, simple, fundamental analysis of Bitcoin price relative to transactions on the network  https://t.co/onnoCdzIJz #finance"
815619917613559812,2017-01-01 18:05:16,"RT @ShapeShift_io: Happy New Year, friends! 2017 is going to be a blast at ShapeShift with exciting new offerings! Stay in the know: https:‚Ä¶"
815589693907697666,2017-01-01 16:05:10,"RT @BTCsportsbettor: #Bitcoin was the worlds best performing currency in 2010, 2011, 2012, 2013, 2015 &amp; 2016, and the worlds worst performi‚Ä¶"
815369224260554752,2017-01-01 01:29:06,Great way to end 2016! #bitcoinFTW https://t.co/kr6OFoucIG
815347820689555456,2017-01-01 00:04:03,"Now that @Uber exists, there is zero excuse to get behind the wheel after drinking. Stay safe and have fun #nye2016 #moneywellspent #NYE"
815255571007991809,2016-12-31 17:57:29,RT @alistairmilne: Bitcoin currency support coming to Microsoft Excel in 2017 https://t.co/MaszEPlAuO
815020293722898432,2016-12-31 02:22:35,"Supload is pretty nice looking, when you upload images and share, you get a portion of ad revenue paid in Bitcoin https://t.co/MkehxsZABt"
814975160260378624,2016-12-30 23:23:14,‚Äú2016 Blockchain Year in Review for Casual Observers‚Äù by @NTmoney https://t.co/85wgb4fHEe #bitcoin #ethereum
814954219358687232,2016-12-30 22:00:01,Coinbase Customer Doubles Down on Legal Action Against IRS https://t.co/4fefHAIbU0 via @CoinDesk
814953141389041664,2016-12-30 21:55:44,.@CycleTrades @WSJ Chart of bitcoin transactions over time. Why do you say ponzi? Easier to criticize than analyze? https://t.co/w4tMabydAk
814952058994315264,2016-12-30 21:51:26,"RT @WSJ: Bitcoin has trounced the Dow this year, 124% to 14% https://t.co/FWqOP9NxwP"
814873718765785092,2016-12-30 16:40:08,"RT @bitFlyer: „ÄêÊó•ÁµåÊñ∞ËÅûÂÖ®Èù¢Â∫ÉÂëä„ÇíÊé≤Ëºâ„Äë
Êú¨Êó•2016Âπ¥12Êúà30Êó•(Èáë)„ÅÆÊó•ÁµåÊñ∞ËÅûÊúùÂàä„ÅßÂÖ®Èù¢Â∫ÉÂëä„ÇíÊé≤Ëºâ„ÅÑ„Åü„Åó„Åæ„Åó„Åü„ÄÇ

2017Âπ¥„ÅØ„ÄÅ‰ªÆÊÉ≥ÈÄöË≤®ÂÖÉÂπ¥„ÄÇ
‰ªÆÊÉ≥ÈÄöË≤®Ê≥ï„ÅåÊñΩË°å„Åï„Çå„ÄÅ„Äå„Éì„ÉÉ„Éà„Ç≥„Ç§„É≥„Äç„Åå„ÅÑ„Çà„ÅÑ„Çà‰∏ñÁïå„ÇíÂ§â„Åà„Å¶„ÅÑ„Åè„ÄÇ
ÁßÅ„Åü„Å°„ÅØ„Åù„ÅÜ‰ø°„Åò„Å¶„ÅÑ„Åæ„Åô„ÄÇ
https://‚Ä¶"
814872688447619073,2016-12-30 16:36:03,Japanese Bitcoin Commercial!„Äé„Éì„ÉÉ„Éà„Ç≥„Ç§„É≥„ÅØbitFlyerÔΩû‰∏ñÁïå„ÅØÂõû„ÇãÁ∑®ÔΩû„Äè ÔºàÔºìÔºêÁßíÔºâ https://t.co/0rMmcldxs9 via @YouTube @bitflyer
814858001085501440,2016-12-30 15:37:41,"@DarioTepoTec @ShapeShift_io We don't do $1.5m every day, so we're only about 10x YoY growth."
814613136745631745,2016-12-29 23:24:41,"@jack @Square Bitcoin! Im buying bagel breakfast every morning on a square POS, and id like to pay with bitcoin, not credit cards"
814559288190451712,2016-12-29 19:50:42,@TheStalwart @carney Its absolutely a societal solution if the society gets out of a debasing currency. U suggest they hold while printing?
814558995058982913,2016-12-29 19:49:32,"@TheStalwart @carney Zero sum for the currencies against each other, yes, but positive sum for the humans who escapes bolivars."
814557902283436032,2016-12-29 19:45:12,"@eliwhittle @TheStalwart You mean a $50 smartphone with data connection? Fairly common in Venezuela, no?"
814557719264890880,2016-12-29 19:44:28,"@carney @TheStalwart Peg is the wrong word, but if someone is willing to sell BTC at that rate, that's awesome for the buyer."
814556873718435842,2016-12-29 19:41:07,@eliwhittle @TheStalwart A currency that is not falling apart and can avoid capital controls is not high on their list?
814556516992909314,2016-12-29 19:39:42,@carney @TheStalwart Perhaps that's not where most of the cash trades are happening then. Did you see this piece? https://t.co/ubS5hkk4jI
814554448659906560,2016-12-29 19:31:28,"@carney @TheStalwart https://t.co/9fcBenqO6b  And importantly, once you have the BTC, you can spend anywhere on earth without restriction."
814553466668548096,2016-12-29 19:27:34,".@carney @WalterRothbard @TheStalwart For sure... debtors love debasement, that's why US Gov (biggest debtor of all) will keep printing."
814552545075007489,2016-12-29 19:23:55,".@_blackpete_ @barrysilbert @ShapeShift_io We're not in the business of fiat garbage money (we try to avoid scams, fiat biggest scam of all)"
814552197115613184,2016-12-29 19:22:32,".@TheStalwart @carney Cant hold EUR in a Venezuelan bank account, or transfer. No bank needed with BTC (thus avoiding cap controls entirely)"
814551693090295808,2016-12-29 19:20:31,.@TheStalwart Here is a really good article on the Venezuela situation and bitcoin's role:  https://t.co/ubS5hkk4jI
814550855139598336,2016-12-29 19:17:12,.@TheStalwart R u serious? Their currency has been utterly destroyed by debasement. Highest inflation in the world. BTC avoids debasement.
814550285574082564,2016-12-29 19:14:56,Bitcoin can't happen fast enough in Venezuela. Most important country for adoption for humanitarian reasons. https://t.co/ASuOzHH5p0
814548358853525504,2016-12-29 19:07:16,@blockchainbros @dongreenmon There are certainly coins that we consider delisting. We don't accept payment for listing.
814548161263968256,2016-12-29 19:06:29,"@MrHodl @ShapeShift_io Varies between Bitcoin, Ethereum, and Monero. Those three markets are huge in both directions."
814547361099902976,2016-12-29 19:03:19,"Fun fact... @ShapeShift_io processed $1.5m in customer orders past 24 hours. Last December, a year ago, the entire month was $1.5m. #bitcoin"
814547116655869952,2016-12-29 19:02:20,"@dongreenmon @blockchainbros No specific amount, but anything over $50k avg daily volume we will start looking at (not nec. add though)"
814545523332050945,2016-12-29 18:56:00,"@blockchainbros We add assets that achieve sufficient daily trade volume... each one requires work, capital, and support on our side."
814544593211506694,2016-12-29 18:52:19,Thank you!!  Comments like this make our day :)  And yes there's a crazy apparatus behind the scenes... our job is‚Ä¶ https://t.co/fCR8hGvF0E
814528077510348800,2016-12-29 17:46:41,"RT @CNBC: Forget about Dow 20K: Bitcoin's about to hit $1,000 https://t.co/33CbTHOOPv"
814489741328613376,2016-12-29 15:14:21,"Secrets, lies and Snowden's email: why I was forced to shut down Lavabit https://t.co/fCTykTHbOt"
814482901773537280,2016-12-29 14:47:10,New Bitcoin Documentary coming soon to select theatres. Banking on Bitcoin Trailer: https://t.co/GeLakyHn7G via @youtube #finance #tech
814329268377370624,2016-12-29 04:36:41,13 Essential Books on the Libertarian Worldview https://t.co/ttcupXoXCw #liberty #freedom #law #society
814236014013247488,2016-12-28 22:26:08,The Telegraph: Bitcoin price at record high against pound and euro https://t.co/9PkVVIh7eT via @telegraphtech #finance #forex #markets
814233484763996160,2016-12-28 22:16:05,"If half of my twitter followers bought one bitcoin each, we'd soar past $1,000. Not suggesting anyone do that, of course ;)"
814216797738172417,2016-12-28 21:09:46,.@RouletteRun @circlepay I'm mostly kidding... I wonder if they regret the decision yet. I was really disappointed in them.
814215626885595136,2016-12-28 21:05:07,"I think we all know Bitcoin is going over $1000 before Jan 1 2017, don't we?"
814215303613792256,2016-12-28 21:03:50,"@jajonsso start following the community news closely, best option is probably https://t.co/jEK2LM6NWm (though it has some problems)"
814215097660932097,2016-12-28 21:03:01,Is it just me or did the recent bull run in Bitcoin start almost immediately after @circlepay chose to drop Bitcoin?
814210931563655168,2016-12-28 20:46:28,IRS Trick In Coinbase Case As It Seeks Wholesale Access To Private User Data via @forbes https://t.co/koINjivkLt
814157583841894404,2016-12-28 17:14:28,Love this tweet. https://t.co/ICnUo5eCjB
814131970477293569,2016-12-28 15:32:42,RT @BlockchainAUS: Decentralized #Marketplace @openbazaar   Integrates @ShapeShift_io  Allowing Payment with Any #DigitalAsset https://t.co‚Ä¶
813902597467832321,2016-12-28 00:21:15,‚ÄúBitcoin 2017 : A Currency Devaluation Hedge for Emerging Markets‚Äù by @VinnyLingham https://t.co/5FgDvKD5O4 #blockchain #finance #forex
812347329588109312,2016-12-23 17:21:10,"@mcrsqr Top between $1500-$5000, bottom $800.  10% confidence in those numbers ;)"
812347127523319808,2016-12-23 17:20:22,"@coinjunky Can't have strong sustained growth without speculative bubbles... if u know price up 5% every month, it gets frontrunned."
812346796076834818,2016-12-23 17:19:03,"@TeringNering I said it would experience many bubbles, didn't say a number."
812346684739092480,2016-12-23 17:18:36,".@tomohelman First Bitcoin bubble from $0.10 to $1, then $0.50 to $31, then $2 to $130, then $80 to $1150, now bubble #5 $200 -&gt; ???"
812344639369965568,2016-12-23 17:10:29,"@pio_trek_g @DougHenwood It is impossible for world to invent a new, superior store of value without it then becoming a speculative asset."
812332247424581634,2016-12-23 16:21:14,Destinia decides to opperate exclusively in Bitcoins in Venezuela https://t.co/8uFK7hjRZU via @destinia
812327360909479937,2016-12-23 16:01:49,"Bloomberg: ""Bitcoin is beating all major currencies, stock indexes in 2016"" https://t.co/fZITDsyhgA via @markets #finance #forex #equities"
812139514239938560,2016-12-23 03:35:23,Im so ready for bubble #5! #bitcoin #tothemoon
811974456885252096,2016-12-22 16:39:30,ShapeShift and OpenBazaar video  https://t.co/5y23NOP4xJ  #bitcoin @ShapeShift_io @openbazaar #bitcoin #ethereum #monero #blockchain
811930409512615936,2016-12-22 13:44:29,RT @alistairmilne: Bitcoin has just breached its all-time high 'market cap' level.  All Bitcoin in existence is today worth a total of ~$14‚Ä¶
811805283232182272,2016-12-22 05:27:16,How India's Demonetization Is Affecting Bitcoin Startups via @forbes https://t.co/ZRf2zTP3dI
811749862878408704,2016-12-22 01:47:03,One of the best video explanations ever made about how Bitcoin works https://t.co/nWzvhqwRVe via @YouTube #finance #tech
811643365536186370,2016-12-21 18:43:52,CNBC: Bitcoin passes the $800 mark https://t.co/n79O9rLPvm
811598745716584449,2016-12-21 15:46:34,"RT @petertoddbtc: The Nairobi, Kenya meetup was one of the most interesting Bitcoin meetups I've ever been too. Great to see people using B‚Ä¶"
811352725774401536,2016-12-20 23:28:58,@A_n_Elk @paulkrugman  Tulips prices never recovered after the first grand bubble. Bitcoin has. Your comparison is flawed.
811352359288745984,2016-12-20 23:27:31,Hilarious that Krugman now uses the internet itself to make more assertions that will prove to be wrong. https://t.co/tBiXGCdDNB
811351699025784832,2016-12-20 23:24:53,".@paulkrugman Bitcoin up 3x since you said it was stupid. Best performing asset of 2016, in fact. https://t.co/D7iYvctlgr #SCOREBOARD"
811284703814832129,2016-12-20 18:58:40,"Opinion: Dear Mr. Trump: To ‚ÄòCyber‚Äô Better, Try the Blockchain https://t.co/axrsEL8hCN via @WIRED #bitcoin @realDonaldTrump @coincenter"
811269497667616768,2016-12-20 17:58:15,"Real-time market data of digital assets, ranked by market cap. https://t.co/2JZAgbHdE1 #blockchain #bitcoin #ethereum #dash #monero #ripple"
811258746659868672,2016-12-20 17:15:32,OpenBazaar 1.1.10 Released ‚Äì @ShapeShift_io integrated! https://t.co/KIaFoqoE64 via @OpenBazaar #bitcoin #ethereum #monero #dash #zcash
811217383184617472,2016-12-20 14:31:10,Trump Picks ‚ÄòBitcoin Congressman‚Äô Mulvaney for Budget Chief https://t.co/LZfb3eq6W8
810988854488416257,2016-12-19 23:23:05,.@UCanCallMeBurt @ObsoleteDogma Umm are you serious? Its lost over 95% of its value since the Fed was created (1913) https://t.co/Orkml7vbl3
810988476652916737,2016-12-19 23:21:34,RT @ObsoleteDogma: Trump‚Äôs OMB pick is anti-Fed and pro-Bitcoin https://t.co/jlwxVGyMzE https://t.co/rbuYmmIcSt
810562129631789056,2016-12-18 19:07:25,Bitcoin available for purchase at all Swiss Rail kiosks throughout the country... https://t.co/YS7uhngvnT
810272928218677248,2016-12-17 23:58:14,RT @vivatechhrz: Bitcoin‚Äôs Rally Crushed Every Other Currency in 2016. Here‚Äôs Why https://t.co/vkIbUF3t8e #vivatech via @ErikVoorhees
809865981812056064,2016-12-16 21:01:11,Overstock Begins Trading Its Shares Via the Bitcoin Blockchain https://t.co/WQRWsswBoV via @WIRED
809766607937540096,2016-12-16 14:26:18,Bloomberg: Bitcoin's Rally Crushed Every Other Currency in 2016 https://t.co/hdWDq9f7cQ #bitcoin #blockchain #forex #finance
809556746901524480,2016-12-16 00:32:23,"And this, ladies and gentlemen, is one justification for avoiding the acquisition of customer data in the first pla‚Ä¶ https://t.co/StAF2CuIQ7"
809551715531948032,2016-12-16 00:12:24,Blockchain in 2017: The Year of Smart Contracts https://t.co/aVVX3M0DWr via @PCMag
809551307094761473,2016-12-16 00:10:47,"Big week for blockchain venture capital... @sendwyre $5.8m, @openbazaar $3m, and $10m for Polychain Capital from @a16z and @USV #VC"
809549879458594818,2016-12-16 00:05:06,Congrats to @MichaelDunwort1 and the team at @sendwyre! ‚ÄúWyre Raises $5.8M Series-A‚Äù by Wyre https://t.co/7cX8qrjwWk #bitcoin #blockchain
809331407340191744,2016-12-15 09:36:58,RT @drwasho: Testing rc1 of @openbazaar 1.1.10 with @ShapeShift_io integration. I just bought a Bitcoin Patch using @zcashco :D https://t.c‚Ä¶
808719824951996416,2016-12-13 17:06:46,"RT @GBSavant: ""value becoming natively digital is inevitable"" @ErikVoorhees #blockchain #bitcoin #crypto #tokenization @Coinfirm_io https:/‚Ä¶"
808719357400465410,2016-12-13 17:04:54,Kraken Acquires Glidera -  https://t.co/rUnVDLJKsZ #bitcoin #ethereum #zcash #blockchain
808699592414023680,2016-12-13 15:46:22,"So happy to see this project getting serious funding. ""Bitcoin-Powered Marketplace @OpenBazaar Raises $3 Million"" https://t.co/rpaEarxvGJ"
808582780246458368,2016-12-13 08:02:12,RT @msantoriESQ: Tremendous news! Former Barclays CEO joins @blockchain. Could not be prouder. A huge win for #bitcoin.  https://t.co/KJawO‚Ä¶
808410627559526400,2016-12-12 20:38:07,Why Affiliate Networks Are Adopting Bitcoin https://t.co/KZoFdxm1eD via @bitpay
807972529243557890,2016-12-11 15:37:17,"RT @JuanLlanos: ""The regulatory situation [in the US] is so confusing that there are even regulators to coordinate the regulators."" https:/‚Ä¶"
807335694746222592,2016-12-09 21:26:43,"CoinDesk: A16z, USV Invest $10 Million in Blockchain Token Trading Firm https://t.co/IALmcosPeW via @CoinDesk #bitcoin #ethereum"
807327636632535040,2016-12-09 20:54:42,@BKBrianKelly @Melt_Dem thats a good way to say it Brian
807327473272819712,2016-12-09 20:54:03,.@Melt_Dem Early for sure... but value becoming natively digital is inevitable dont you think?
807323412481839105,2016-12-09 20:37:55,"A16Z and USV $10m Polychain deal is huge news, demonstrates interest in raw accumulation of digital assets. #bitcoin #ethereum #blockchain"
807318993321259008,2016-12-09 20:20:21,Andreessen Horowitz And Union Square Ventures Invest $10m In New Digital Asset Hedge Fund via @forbes https://t.co/KM63tCqDNg #bitcoin
807028591980662784,2016-12-09 01:06:24,RT @Unocoin: November was yet another record month for @Unocoin in terms of number of new users and total #bitcoin trade volume. #IndiaBitc‚Ä¶
807026996018630656,2016-12-09 01:00:04,Venezuelans don't believe in bitcoin. They need bitcoin. Listen to @jimepstein on the @ThomasEWoods show. https://t.co/TQEWoEfn5r
807026452730441729,2016-12-09 00:57:54,"RT @OneMorePeter: As of today, you can buy #bitcoin from inside your @blockchain wallet in 34 European countries, instantly! üöÄ"
806646772709916673,2016-12-07 23:49:12,3 Ways Bitcoin Is Promoting Freedom in Latin America https://t.co/7alQyCwfD4 via @YouTube #venezuela #capitalcontrols
806584002748567558,2016-12-07 19:39:46,"Digital assets are often complimentary, not always competitive. Today every asset on ShapeShift is up simultaneously https://t.co/cLqVr4uC2k"
806247012085755906,2016-12-06 21:20:41,"RT @rkleinwaechter: #ShapeShift helped me to recover lost founds, despite it was my mistake. Damn serious company! We need more of this in‚Ä¶"
806210709881311232,2016-12-06 18:56:26,@coincidental_eu @ChamberDigital What exactly are you complaining about?
806209808336650241,2016-12-06 18:52:51,RT @ChamberDigital: It has arrived! Smart contracts white paper provides immediate use cases and terminology. Download now: https://t.co/pS‚Ä¶
806209504174022657,2016-12-06 18:51:39,RT @kingscrownBTC: guide how to use @ShapeShift_io with @bitcoinkeepkey https://t.co/QlRQNqvYVY on #steem $STEEM #steemit @doug94358766 #bi‚Ä¶
806182138185793536,2016-12-06 17:02:54,@moneytrigz @MrHodl Buying more.
806181311241142273,2016-12-06 16:59:37,Honored to be part of the ‚ÄúBlockchain Dream Team‚Äù w/32 others. Free PDF on #blockchain future https://t.co/FqmYlBUwZY #nsm #bitcoin
805100399971725312,2016-12-03 17:24:28,RT @koenbok: I still watch this talk by @ErikVoorhees once every year to remind myself what money really is... https://t.co/OQfMFX9TyC
805100317406851072,2016-12-03 17:24:08,RT @RandyHilarski: https://t.co/0uk7Zvft18 Featured in @Reason to Help People Mine #Bitcoin in #Venezuela @Steemit https://t.co/Dcv8b7jt1r‚Ä¶
804934310486740992,2016-12-03 06:24:29,Video: Andreas Antonopoulos on London Real https://t.co/UqilDjJvtJ via @YouTube #bitcoin #centralbank #fiat #brexit #currency
804849284998975488,2016-12-03 00:46:37,Banking in India right now... there's nothing civil about fiat currency. It is money based on coercion.  https://t.co/ONPiO49thk
804727373170176000,2016-12-02 16:42:11,RT @TraceMayer: How big is $BTC? An M0 &gt; about 61% countries. Cypherspace is rapidly attracting citizens. @adam3us @CharlieShrem @ErikVoorh‚Ä¶
804727234737111040,2016-12-02 16:41:38,RT @ShapeShift_io: Have you checked out @CoinCap_io? Get realtime coin market data on the app or on the web: https://t.co/Sxynn60hlV
804472011858776065,2016-12-01 23:47:28,"@Chris45215 Sounds like a great opportunity for the marketplace to provide a solution, instead of a coercively forced, centrally-planned one"
804419043633623044,2016-12-01 20:17:00,"@Chris45215 If banks werent insured by gov, theyd seek private insurance, and those insurers would better examine behavior."
804418783028899840,2016-12-01 20:15:57,@Chris45215 Thats fraud. Should be prosecuted.
804418694130659328,2016-12-01 20:15:36,@Chris45215 Obviously a bank would take the option of being insured by the public :)
804411320757993472,2016-12-01 19:46:18,"@Chris45215 Without FDIC, people would (with time) take interest in the solvency of banks, preventing certain types of wreckless behavior."
804411127618600960,2016-12-01 19:45:32,"@Chris45215 Yes, it does make them ""feel"" safe. But in reality it endangers the whole system and removes market discipline."
804409614464753665,2016-12-01 19:39:31,RT @WalterRothbard: @ErikVoorhees https://t.co/i9X6XMCJDB
804392270527164416,2016-12-01 18:30:36,Bitcoin is up 100% over the past two years.
804376739594043392,2016-12-01 17:28:53,.@C1aranMurray @piramida Too big to fail is a direct result of government involvement in banking (FDIC insurance+central bank). Anti-market
804376481380057088,2016-12-01 17:27:52,"@C1aranMurray @piramida That is a flawed understanding... specific individuals/orgs are owed money, not the ""public"" generally."
804376091653795840,2016-12-01 17:26:19,Interesting... the biggest single BTC market last 24hrs was XMR/BTC pair (not BTC/USD) Natively digital value FTW  https://t.co/4ccDMmdnkf
804374363059449856,2016-12-01 17:19:27,"@C1aranMurray @piramida Well then in that case, it went from roughly ~50% of GDP to roughly ~100% of GDP. Not good. Once rates rise, death."
804372642270683136,2016-12-01 17:12:37,"@C1aranMurray @piramida The system pre-1913 didn't ""fail"" either. I also don't know that you can say 2008 wasn't a failure, $10T in new debt"
804372307271675904,2016-12-01 17:11:17,Bitcoin‚Äôs busiest week ever https://t.co/uA1K7Dg5ec #bitcoin
804367881056227328,2016-12-01 16:53:41,".@abudebun @ShapeShift_io We have a special deal with the NSA, they alert us whenever a customer needs help."
804367225117413383,2016-12-01 16:51:05,@C1aranMurray @piramida All the worst ones happened after the Federal Reserve was created... so maybe you're looking at things backwards?
804366639995174912,2016-12-01 16:48:46,"@abudebun @ShapeShift_io Please submit a support ticket if so, we'll get you taken care of. https://t.co/L1dsEPWetG"
804365391862657024,2016-12-01 16:43:48,".@piramida Well, as you should know, wealth can only come from an Emperor. He pulls it out of his ass and nobly bestows it upon his subjects"
804362539903623172,2016-12-01 16:32:28,"Yes! One of the most important books ever written, and readable in a couple hrs. https://t.co/Anxc5bUhfX"
804362405660815360,2016-12-01 16:31:56,"@piramida that doesn't really matter... an oz of gold is an oz of gold, and can't be conjured into existence by anyone."
804361797260210176,2016-12-01 16:29:31,".@piramida Gold/silver were money for most of modern human history, then government got involved, changed it to paper so it could print it"
804360670363942912,2016-12-01 16:25:02,"Welcome India  
‡§≠‡§æ‡§∞‡§§ ‡§Æ‡•á‡§Ç ‡§Ü‡§™‡§ï‡§æ ‡§∏‡•ç‡§µ‡§æ‡§ó‡§§ ‡§π‡•à‡•§  https://t.co/wA1M960HYT https://t.co/UPChibh1H8  @ShapeShift_io #bitcoin #ethereum"
804326230610898944,2016-12-01 14:08:11,China's Huiyin Group Launches $20 Million Bitcoin Fund https://t.co/y2rFqj0s0A via @CoinDesk
804086627652030468,2016-11-30 22:16:05,Reminder on why Bitcoin should not be automatically categorized as money (though I used to think it should)... https://t.co/0uITFBfoJl
804086440485408775,2016-11-30 22:15:21,"@dsbrenner I changed my mind on calling Bitcoin money, here's why:  https://t.co/0uITFBfoJl"
804078815320428547,2016-11-30 21:45:03,Illinois and Texas will be on the right side of history. https://t.co/5rl40VfReZ
804067402178760705,2016-11-30 20:59:42,@WalterRothbard School absolutely
804059835197177856,2016-11-30 20:29:38,"A wise and civil society keeps government out of speech, religion, and money, all for the same reason."
803728647647416320,2016-11-29 22:33:36,Wired: Ross Ulbricht‚Äôs Lawyers Say They‚Äôve Found Another Corrupt Agent in Silk Road Case https://t.co/Zu7gfLNGZQ via @WIRED #bitcoin
803713301653979138,2016-11-29 21:32:38,Pull request for @OpenBazaar enabling any form of digital asset as payment  https://t.co/6WXoPoxfLg @ShapeShift_io #ethereum #monero
803711270440599552,2016-11-29 21:24:33,3 Ways Bitcoin Is Promoting Freedom in Latin America https://t.co/7alQyCwfD4 via @YouTube @jimepstein @reason
803644533254696960,2016-11-29 16:59:22,@sajmathieubegue  Maybe try putting your energy into something productive instead of tearing people down
803629861868687360,2016-11-29 16:01:04,@RoadStress Trades are often mutually beneficial... that's why the trade occurs. A sale or purchase doesn't need to be at anyone's expense.
803628656069210112,2016-11-29 15:56:16,"@theonevortex Impossible to predict specifics, yes. Predicting general growth of certain useful assets... well, I'm trying!"
803628382810275841,2016-11-29 15:55:11,@moneytrigz No thanks $orangejuice I only drink $water!
803628063858622464,2016-11-29 15:53:55,@RoadStress What ROI at others cost are you talking about?
803627503751294976,2016-11-29 15:51:42,"@MrChrisEllis @Codiox ETH exit comes in 3-10 years. Or, perhaps like Bitcoin, there is never really a full exit. Exit was from fiat."
803621024013041664,2016-11-29 15:25:57,@moneytrigz @MrHodl That wasn't day 1.
803620750896734210,2016-11-29 15:24:52,@theonevortex @WhalePanda Depends if cost of new warehouse was &gt;=&lt; cost of reorganization. And would decide again the following month.
803620389691662336,2016-11-29 15:23:26,@bergealex4 @MrHodl @brian_armstrong @FEhrsam I suppose you haven't considered what I spend my days working on. Let's discuss over a beer.
803620125865689088,2016-11-29 15:22:23,"@FantasyFBHorror It's up 30x from original sale. Anyone who lost money is trading speculatively short-term, I have no sympathy for traders."
803619779298766848,2016-11-29 15:21:00,@MrChrisEllis I've been made fun of as a BTC bag holder for over five years as well.
803619585073131520,2016-11-29 15:20:14,"@CryptoJonathan didn't sell any, buying more &lt;$10"
803619447055400960,2016-11-29 15:19:41,@Sh0t  Didn't sell any
803619344643014656,2016-11-29 15:19:16,"@MrHodl  My cost-basis is around $0.95... so made 20x, then lost half. Only up 10x now. Hodling BTC, ETH, REP and ZEC"
803618799458992128,2016-11-29 15:17:06,@moneytrigz Didn't sell any but keep trollin'
803618739593711616,2016-11-29 15:16:52,"@bergealex4 @MrHodl @brian_armstrong @FEhrsam It's about a lot of things, mainly reinventing the entire financial system on an open platform"
803618258741927936,2016-11-29 15:14:58,@FantasyFBHorror May I ask why it's so distasteful to you?
803614096847503364,2016-11-29 14:58:25,@MrHodl @brian_armstrong @FEhrsam Yeah it was hilarious when we made 10x return in three months.
803612264917966848,2016-11-29 14:51:09,"The world of value is digitizing... ""Royal Mint offers gold trading based on blockchain"" https://t.co/Aq2nUGmA5p via @telebusiness"
803611400035770368,2016-11-29 14:47:42,"RT @CharlieShrem: The adoption will be slow and wide, but it will come.. 

""Home screen on every Swiss Train (SBB) Ticketing Machine"" via /‚Ä¶"
803464206582509568,2016-11-29 05:02:49,@djbooth007 Fair point :/ Time to turn off twitter
803442599109554176,2016-11-29 03:36:57,"@sajmathieubegue @brian_argstrong @maddenw Well let's see SegWit get activated, then you can talk."
803441755249143808,2016-11-29 03:33:36,"@MrHodl @sajmathieubegue @brian_argstrong @maddenw @LukeDashjr If by ""impose my will"" you mean ""offer suggestions"" then yes, I do."
803441607462846465,2016-11-29 03:33:01,@sajmathieubegue @brian_argstrong @maddenw Nobody is opposed to segwit. Stop parroting this false dichotomy as if it is mutually exclusive.
803441281628250112,2016-11-29 03:31:43,@sajmathieubegue @brian_argstrong @maddenw 12 months is absurd... but if it was started a year ago we'd be done already.
803441085691428864,2016-11-29 03:30:56,@MrHodl @sajmathieubegue @brian_argstrong @maddenw @LukeDashjr Yep I know that. % of community in that camp is probably &lt;1%
803440864144003072,2016-11-29 03:30:03,"@kyletorpey @brian_argstrong @robustus @btcfork You assume HF would fail. You dont know that, thus it's a risk, and many don't appreciate it"
803440452410179584,2016-11-29 03:28:25,@brian_argstrong @AlpacaSW Nobody is demonizing secondary layers. They simply want layer 1 to have more base capacity than 4 txs per sec.
803440265277083648,2016-11-29 03:27:41,@sajmathieubegue @brian_argstrong Umm not really. 2 or 4mb HF is a compromise. Many/most big blockers want &gt;8mb and possibly no hard limit.
803439925739843588,2016-11-29 03:26:20,@DerekAndonian @OnTheBlockChain Voted. Yes I absolutely support both. Buys 2-4 years of scale growth while lightning is rolled out.
803439468992667649,2016-11-29 03:24:31,"@sajmathieubegue @brian_argstrong @maddenw ::facepalm:: No dude. But planned HF to 2x bigger blocks to buy time to grow? Yes, absolutely."
803439064674340868,2016-11-29 03:22:54,@kyletorpey @brian_argstrong @robustus @btcfork And risk of that is so small that you'd prefer that over risk of HF 2x blocksize?
803438636620455936,2016-11-29 03:21:12,"@MrHodl @brian_argstrong @maddenw Stop treating ""the users"" like a homogeneous group. Many different individuals with different preferences."
803425957373681664,2016-11-29 02:30:49,@brian_argstrong If a bunch of uncompromising elitists don't listen to large portion of users and they go elsewhere... who is that on?
803422807560486912,2016-11-29 02:18:18,@brian_argstrong @maddenw Softfork is not safer if it encourages large portion of community to consider contentious HF. Pls consider that.
803421316921655296,2016-11-29 02:12:23,"@brian_argstrong @robustus @btcfork changing open-source code is never coercion, please be more careful with that term."
803421178811523072,2016-11-29 02:11:50,@brian_argstrong @compricadev @mrschtief I guess we disagree on that.
803421080094474240,2016-11-29 02:11:26,"@brian_argstrong @compricadev @mrschtief Well, there are 23k on /r/btc and many big-blockers (like myself) aren't even there."
803420769774686208,2016-11-29 02:10:13,"@brian_argstrong @compricadev @mrschtief That can be said of many people on both sides of the debate, no?"
803420653101707264,2016-11-29 02:09:45,@brian_argstrong @robustus @btcfork I don't think you know what coercion means.
803420306379567104,2016-11-29 02:08:22,"@brian_argstrong @maddenw They can absolutely promise to put a planned HF on the roadmap. If it was genuine, users would largely support"
803420009133473794,2016-11-29 02:07:11,"@sajmathieubegue @brian_argstrong @notgrubles @rogerkver Which ""community"" are you referring to? The one you spend time in?"
803419930343440385,2016-11-29 02:06:52,@brian_argstrong @robustus @btcfork Free market just means absence of coercion. Both sides are free market paths forward. Neither r coercive
803419643180355584,2016-11-29 02:05:44,@brian_argstrong @compricadev @mrschtief I talk openly with him all the time. Have you tried talking to him?
803419472233111552,2016-11-29 02:05:03,@sajmathieubegue @brian_argstrong @notgrubles @rogerkver Pls stop making this about one person.
803419175159037952,2016-11-29 02:03:52,"@brian_argstrong @compricadev @mrschtief It's my anecdotal and observational opinion as someone in this industry, you may disagree."
803418782807052288,2016-11-29 02:02:19,@sajmathieubegue @mrschtief @compricadev I'm all in favor of segwit. It is not mutually exclusive with a HF 2x block increase
803418510638583808,2016-11-29 02:01:14,@brian_argstrong @robustus @btcfork Ummm not any more than making the opposite decision to keep blocksize small. Both are suggested paths
803417373952933888,2016-11-29 01:56:43,@brian_argstrong @sajmathieubegue @notgrubles Your premise is wrong. @rogerkver is happy to discuss. But this shouldn't be about him.
803403502672343041,2016-11-29 01:01:36,"@notgrubles @AlpacaSW Yes I would. We listed Paycoin before we realized it was a scam. We figured it out, and delisted it immediately."
803403330638770176,2016-11-29 01:00:55,"@bergealex4 I've seen a productive, excited community split into two ridiculous warring factions. It has depressed the project &amp; industry"
803402526041182212,2016-11-29 00:57:43,@AlpacaSW @notgrubles Thanks for the false dichotomy that had no relevance to my question.
803402233530449920,2016-11-29 00:56:33,@notgrubles @AlpacaSW So if a gas station doesn't stop selling gas the owner is a sellout and profiteer?
803402044551860224,2016-11-29 00:55:48,@bergealex4 Best platform for smart contracts to date. The fact that some bad contracts have blown up doesn't invalidate the platform.
803401727508697088,2016-11-29 00:54:32,"@notgrubles @AlpacaSW Is ""decentralization"" a lie for Bitcoin since majority of miners are in China under a few firms?"
803401505743273984,2016-11-29 00:53:40,@AlpacaSW @notgrubles So basically you don't think any of the assets we carry have utility. We should remove those that aren't Alp-Approved?
803400981513965568,2016-11-29 00:51:35,"@notgrubles @AlpacaSW  We add assets that a) achieve significant exchange vol, b) are open source, and c) don't violate promises."
803400343002480640,2016-11-29 00:49:02,"@notgrubles @AlpacaSW @ShapeShift_io So are bars, casinos, stock markets, BMW dealerships, and girlfriends."
803399865686433792,2016-11-29 00:47:09,@AlpacaSW @notgrubles Assets are snake oil/fraud if they knowingly don't do what is promised. Which of the assets we trade are fraudulent?
803399085961183232,2016-11-29 00:44:03,"@compricadev @bergealex4 Agree with your first point, disagree with your second."
803398974254227457,2016-11-29 00:43:36,@notgrubles @AlpacaSW Is the implication that one should not own the products sold at one's store?
803398692598411264,2016-11-29 00:42:29,@AlpacaSW @notgrubles Absolutely not... much better they hold their wealth in perpetually debased fiat and US gov bonds.
803398189491646465,2016-11-29 00:40:29,"@bergealex4 There weren't any hard forks on the Ethereum table, either, until there were."
803397406775771136,2016-11-29 00:37:22,"@AlpacaSW @notgrubles If Jesus was real and had a problem with the voluntary exchange of commodities, then I'd be happy to discuss with him"
803397109068218372,2016-11-29 00:36:11,@hitchslappy @rogerkver It's a snarky rhetorical question that devolves the conversation into tabloid nonsense.
803396879765671938,2016-11-29 00:35:17,@notgrubles Howso? Which coins we support are a scam in your opinion? I've heard Bitcoin called a scam for years.
803396542459760641,2016-11-29 00:33:56,"@DerekAndonian I don't understand why this isn't more appreciated. Both are good, and build on each other."
803393221745377281,2016-11-29 00:20:45,@notgrubles What did I abandon or sell out?
803393076853084160,2016-11-29 00:20:10,@notgrubles What would @rogerkver say the reason was?
803392269936164864,2016-11-29 00:16:58,@notgrubles So I'm an evil profiteer because I am friends with Roger?
803391899352633344,2016-11-29 00:15:29,"@notgrubles @rogerkver It wasn't because of ""differing opinions."" Try to elevate your discourse to what is actually being discussed."
803391716287975425,2016-11-29 00:14:46,@notgrubles let me know if you ever have a point besides calling people names. And I do try to make profit... you prefer loses I assume?
803389245570371585,2016-11-29 00:04:57,"@mrschtief My reading of the industry is almost everyone wants SegWit, and many also want HF for 2x blocksize."
803388905873690624,2016-11-29 00:03:36,@btcfork They should put it on their roadmap. So much toil and tension and bickering can be removed from this project if so.
803388627854249984,2016-11-29 00:02:29,@Technom4ge You're probably right unfortunately.
803388424933769216,2016-11-29 00:01:41,"@giacomozucco Wow nice unhelpful rhetoric. I think you mean ""attempts to increase tx throughput via HF""."
803387969415606273,2016-11-28 23:59:52,@hitchslappy @rogerkver Stop attacking people. This is why the discussion isn't getting anywhere.
803387804952776704,2016-11-28 23:59:13,.@deadalnix Yeah I understand that. Everyone should agree a contentious HF with two userbases is more dangerous than a planned compromise HF
803387330346237952,2016-11-28 23:57:20,@compricadev @mrschtief There are tens (hundreds?) of thousands of users that do. Don't pretend it's a monolithic uniform group.
803372471579791361,2016-11-28 22:58:17,@a3456gf @notgrubles @rogerkver Twatter you are being toxic as well. Start with yourself if you want others to be better.
803372340809781248,2016-11-28 22:57:46,"@sajmathieubegue @notgrubles @rogerkver He is not trying to ""split community."" Don't set up strawmen. Discuss/debate actual arguments."
803372128875769856,2016-11-28 22:56:56,"@a3456gf Totally unhelpful, petty, bickering response."
803368861512986625,2016-11-28 22:43:57,@notgrubles @rogerkver Stop making this about individual people. It's petty.
803367810764247041,2016-11-28 22:39:46,@CommodoreBTC Requesting voluntary conformity =/= coercion. Please try thinking harder before you troll.
803366740654747648,2016-11-28 22:35:31,"Bitcoiners, stop the damn infighting. Activate SegWit, then HF to 2x that block size, and start focusing on the real battles ahead. #bitcoin"
803363355289407488,2016-11-28 22:22:04,Fascinating piece https://t.co/FElXWbOH2b
803343400787410944,2016-11-28 21:02:46,"The Secret, Dangerous World of Venezuelan Bitcoin Mining //reason.com/archives/2016/11/28/the-secret-dangerous-world-of via @reason"
803334467528040452,2016-11-28 20:27:16,Indian Bitcoin Exchange Unocoin Releases Mobile Wallet for iOS and Android https://t.co/5dQ9fXqHdT via @CoinDesk
802984714919215104,2016-11-27 21:17:29,Indian Prime Minister Modi sticks to his 50-day pledge as the cash crisis intensifies https://t.co/tkkuiokQPs via @business
802915195089723392,2016-11-27 16:41:14,That Casto's death is not universally celebrated by humanity suggests humanity still has some learning to do. #FidelCastro
802909655274049536,2016-11-27 16:19:13,RT @brianchoffman: Playing around with Shapeshift integration in @openbazaar https://t.co/VkLCzFe8pa
802541179917078529,2016-11-26 15:55:02,Short-changed: India grapples with the effects of withdrawing 86% of cash in circulation https://t.co/LIASw4r76X via @TheEconomist
802282692087873537,2016-11-25 22:47:54,EY Switzerland becomes first advisory firm to accept Bitcoin - SWI swissinfo.ch https://t.co/SL31Wb1BOY @swissinfo_en
802168839387676672,2016-11-25 15:15:29,"Best way to store Bitcoin and Ethereum offline. And native @ShapeShift_io integration, naturally! https://t.co/9cnV47hY7T"
802165401354436608,2016-11-25 15:01:49,"@AlpacaSW Yes for sure. And unhelpful to blanket condemn anything non-BTC. Guiding is good, fearmongering bad."
801825315194552320,2016-11-24 16:30:26,@AlpacaSW Absolutely... 95% of all altcoins are either scams or just executions of bad ideas.
801825069400027136,2016-11-24 16:29:28,@sajmathieubegue @WhalePanda @ShapeShift_io Thanks kindly for your sincere concern and assistance
801576030393745408,2016-11-23 23:59:52,@BitcoinErrorLog ehhhh not exactly. Many maximalists 1) assume all tokens are BTC competitors and subsequently 2) condemn them as scams
801562331662733327,2016-11-23 23:05:26,"Congrats to our partner @PurseIO! ""Purse App is Now Available on iOS"" https://t.co/8RvOAbLe7v #bitcoin #ethereum #blockchain @ShapeShift_io"
801536145553293313,2016-11-23 21:21:23,@BitcoinErrorLog They're not all monies.
801536046102089728,2016-11-23 21:20:59,"@lightcoin blockchains are about more than money. Money is but one initial use. In 10 yrs, most tokens won't be money."
801535833916526594,2016-11-23 21:20:09,"@Tom_Horvath ""Checking on each other"" is different than calling everything that's not Bitcoin-proper a scam"
801535682728652800,2016-11-23 21:19:33,"@FightFightFight No not P2P. We are a vendor of digital assets... send in Asset A, and we send Asset B to you (we are the counterparty)"
801519438281527296,2016-11-23 20:15:00,"The true competition is between crypto and fiat, not between crypto and crypto. The industry needs to stop finding internal dragons to slay"
801518985477025792,2016-11-23 20:13:12,@lightcoin They are competitors like Google and Amazon are competitors. I happen to be a huge fan of both.
801518746766606340,2016-11-23 20:12:15,.@lopp Sounds like a nightmare. Discrepancy in price is basically a proxy for the horrors of the banking system in the outlier nation.
801518300782067713,2016-11-23 20:10:29,"@bitsinmyblood That's the point... India market has gotten disconnected from global price, arbitrage now hugely profitable."
801508431798665222,2016-11-23 19:31:16,Somebody get on this arbitrage!! https://t.co/2cqt4M9Vyn
801496626187669504,2016-11-23 18:44:21,"Go get 'em buddy! ""Bitcoin Pioneer Charlie Shrem Launches New Blockchain Venture"" https://t.co/S3DAeI9nj9 via @CoinDesk @CharlieShrem"
801494902261612545,2016-11-23 18:37:30,@kyletorpey @Jorj_X_McKie @AugurProject @BitcoinHivemind And there was money before Bitcoin.
801494743217799168,2016-11-23 18:36:52,"Yes to this! ‚ÄúDear Video Gaming, Please Make Babies With the Blockchain‚Äù by @SoCrypTech https://t.co/GgkN42PM7q #bitcoin #ethereum #gaming"
801451649726353408,2016-11-23 15:45:38,"Those who call themselves ""realists"" have run out of arguments. It's equivalent to saying, ""I believe something is true, thus it's true."""
801220762803851264,2016-11-23 00:28:10,@theonevortex @GitKilbert yeah forks aren't generally good... but if they improve system and diminish in frequency then mkt will be happy
801220359114620932,2016-11-23 00:26:34,@kyletorpey stay tuned
801153953056563201,2016-11-22 20:02:41,".@Aprexer @ShapeShift_io Because they have nothing productive to offer the world... they either scam, or go work for the government."
801151870379159553,2016-11-22 19:54:25,"@GitKilbert @theonevortex ""no one trusts ethereum anymore""... I trust ethereum, and its market cap remains &gt;$750m, so I'm not alone."
801147231227281409,2016-11-22 19:35:59,RT @SamouraiWallet: Keep track of #segwit activation quickly and easily with this handy site we put together. https://t.co/devcz7t3fc
801117217488150528,2016-11-22 17:36:43,"@sajmathieubegue @hernzzzzzz It's useful for building certain types of tools... as these tools are developed, end-user applications arrive"
801116966480125952,2016-11-22 17:35:43,"@sajmathieubegue @ShapeShift_io Such a tired and superficial argument. Bitcoin was similarly labelled a scam, and still is by the ignorant."
801101863911206916,2016-11-22 16:35:42,@sajmathieubegue @ShapeShift_io ShapeShift grows with the universe of digital assets. Bitcoin is the single most important therein.
801101746261159936,2016-11-22 16:35:14,@hernzzzzzz Smart contracts. Stay tuned.
801101637095948288,2016-11-22 16:34:48,@sajmathieubegue @ShapeShift_io I'm not sure you understand how forks work. Compare hashrates and tx count... ETH clearly &gt;50% vs ETC.
801100464532004865,2016-11-22 16:30:09,@sajmathieubegue @ShapeShift_io ETH forked because &gt;50% decided to fork. Same would happen with Bitcoin if majority chose to do so.
801100290841788417,2016-11-22 16:29:27,@Piotr14Tra @theonevortex You're welcome to oppose the ETH hard fork. Doesn't invalidate my statement.
801099708231913472,2016-11-22 16:27:08,@sajmathieubegue @ShapeShift_io 85% of my net worth is in Bitcoin. I also like ETH and ZEC and Augur and I run ShapeShift. There's my biases
801099277619621888,2016-11-22 16:25:26,@theonevortex Kinda like advocating Bitcoin is advocating for Satoshi and his practices. Both involved heavily during first years.
801098698675470336,2016-11-22 16:23:08,"@theonevortex That doesn't even make sense. Both are open permissionless ledgers. Both are innovative and important, and neither are perfect"
801098323314634752,2016-11-22 16:21:38,@sajmathieubegue @ShapeShift_io You stated Bitcoin has run smoothly since beginning. I proved you wrong. Be a man and admit your error.
801097603509317633,2016-11-22 16:18:47,"When I advocate Bitcoin as innovative and useful, Bitcoiners priase me. When I do the same for Ethereum, I'm called a shill. #tribalism"
801097062066556928,2016-11-22 16:16:37,@SeeDecentral True... they all manipulate. And then there's quantitative easing and other manipulative machinations on top.
801096810903244800,2016-11-22 16:15:38,@sajmathieubegue @ShapeShift_io I guess you're unaware of history... 92 billion BTC created in 2010 bug https://t.co/GTKlI6BTzh
801093772926996481,2016-11-22 16:03:33,@sajmathieubegue @ShapeShift_io Yep... and Ethereum users were unaffected by Bitcoin's growing pains in its early years too.
801091950300565504,2016-11-22 15:56:19,RT @ShapeShift_io: UPDATE: Ethereum and ETH-based assets are temporarily offline during the scheduled hard fork of Ethereum. Back up soon!‚Ä¶
801088449604419585,2016-11-22 15:42:24,"Trump: ""THIRD, I will direct my Secretary of the Treasury to label China a currency manipulator"" &lt;---- They manipulate almost as much as USA"
800793882002853890,2016-11-21 20:11:54,And we love seeing our customers use KeepKey. Amazing security and UX. https://t.co/iuLONrCyyD
799760969496858624,2016-11-18 23:47:28,@notgrubles @coinbase Give credit where credit is due. This is the right move they are taking.
799758111749902336,2016-11-18 23:36:07,"Coinbase taking a stand: ""In its current form, we will oppose the government‚Äôs petition in court"" https://t.co/p349aSUFlN @coinbase #bitcoin"
799627703813046272,2016-11-18 14:57:55,"SegWit signaling had started, really happy to see this rolling out. It's an important and significant upgrade in Bi‚Ä¶ https://t.co/HXYstrdpAD"
799303624522395648,2016-11-17 17:30:09,"@sajmathieubegue @MrHodl @paul_btc @flibbr @viajeroloco13 @rogerkver Not correct, over the past few years, USD has strengthened. As has BTC."
799298452429606912,2016-11-17 17:09:35,Help out! Give to Help Shooting Victim Jarrod Ean-Dixon https://t.co/jNGpBSMCuw. #FreeStateProject #liberty @FreeStateNH
799289222813216773,2016-11-17 16:32:55,@MrHodl #hashtag #troll #snarkfest #nevercontributeanythingproductive #typicalinternetperson
799286012492935168,2016-11-17 16:20:10,@viajeroloco13 @flibbr @MrHodl @rogerkver Blocks will not always be full... where were you the last 7 years? Most of that time = not full
799013461183385600,2016-11-16 22:17:08,"@StephenBove @ARKblockchain Bitcoin is no more trust-based than gold. Both are scarce commodities, with value rising and falling in the mkt"
799013201719545857,2016-11-16 22:16:06,"@thedoberstein Hi Theresa - we chatted a year ago, wanted to discuss something. Are you at Index still? Email bounced."
798959625706110976,2016-11-16 18:43:13,Modum.io's Tempurature-Tracking Blockchain Solution Wins Accolades at Kickstarter Accelerator 2016 https://t.co/Cs8oILFDEp #ethereum
798957643779964928,2016-11-16 18:35:20,.@NoelleInMadrid Fiat is the most virtual of all. It can be created out of thin air... and constantly is. Only dragons are more imaginary.
798957328661889024,2016-11-16 18:34:05,"@alejand06640904 Those are not mutually exclusive, and speculation should not be a dirty word."
798941973096923136,2016-11-16 17:33:04,"@JTremback @Vaultoro @Awyee707 @zcashco @ShapeShift_io The fiat is always held by someone...every year, someone is paying for the debasement"
798931376892510208,2016-11-16 16:50:58,@JTremback @Vaultoro @Awyee707 @zcashco @ShapeShift_io Why do you believe compound interest only applies to fiat money?
798903597702389760,2016-11-16 15:00:35,"The world has struggled to realize that Bitcoin as ""virtual currency"" was not novel. The US dollar has been a virtual currency far longer."
798902156786966528,2016-11-16 14:54:51,Advocates of fiat currency will never show you performance over a long time span. No government has ever resisted t‚Ä¶ https://t.co/BorKWHVez3
798901814594797568,2016-11-16 14:53:30,Bitcoin's increasing economic use today is what justified the speculation in 2011.
798712987376828416,2016-11-16 02:23:10,RT @ShapeShift_io: ShapeShiftÂ¶Ç‰ΩïËÆ°ÁÆóË¥πÁéá? https://t.co/4RcquHaEIG
798670340754796544,2016-11-15 23:33:42,@realbitcoinBP @ShapeShift_io Did you open a support ticket?
798651964032622592,2016-11-15 22:20:41,@btsfav @ShapeShift_io ...or we're bullish on the technology and that's why we invested.
798631325150416896,2016-11-15 20:58:40,Private payments and real money... a match made in heaven. https://t.co/KWPfshgZN0
798622820712390657,2016-11-15 20:24:52,.@paulkrugman America has been a kleptocracy for quite a while. Half of everyone's wealth stolen by the government.
798576282170748928,2016-11-15 17:19:57,CNBC: India's rupee restrictions are boosting demand for bitcoin https://t.co/NbhQtQS4uX #finance #india #blockchain
798546375730462720,2016-11-15 15:21:06,"@spiroseliot Nobody yet, it just came out."
798546191923478528,2016-11-15 15:20:23,Awesome phone security opsec advice from @krakenfx https://t.co/hflOL0bmPI
798302916184571904,2016-11-14 23:13:41,RT @bloqinc: Bloq &amp; PwC Australia launch 'Vulcan' to accelerate global adoption of digital assets and currency. https://t.co/VYFsN4R8hX
798267768642699264,2016-11-14 20:54:01,"@BambouClub It's 10% of total supply, not 20%. They've been transparent the whole time. I know Zooko and am proud to support the project."
798247091046785024,2016-11-14 19:31:51,"@BambouClub 20% agency commission? What are you talking about? And what makes a use ""inappropriate""? You decide that?"
798243281855516674,2016-11-14 19:16:43,@BambouClub Zcash is super volatile right now... but volatility =/= scam.
798240664240541697,2016-11-14 19:06:19,@coolbearcjs Don't tweet while driving. Come on man!
798240376121344001,2016-11-14 19:05:10,Buy anything on Amazon with Zcash https://t.co/ElOynhoQMp
798222053858021376,2016-11-14 17:52:22,@coolbearcjs google that number ;)
798221720192778240,2016-11-14 17:51:02,ShapeShift has processed 1337 orders in the last 24 hrs as of this moment ;) #bitcoin #ethereum
798215056404217856,2016-11-14 17:24:34,Low-Cost Cell Service RingPlus Accepts Bitcoin https://t.co/GrTR3l8nwm via @CoinDesk
798205399849701376,2016-11-14 16:46:11,PWC releases Vulcan... (world's first?) enterprise-grade digital currency service https://t.co/6de6hACuK2 @PwC_LLP @bloqinc #bitcoin
797904494994419712,2016-11-13 20:50:30,@ausbitbank I keep reporting it but twitter wont take it down :/
797212732072357888,2016-11-11 23:01:41,"Every Hillary supporter upset and ""literally shaking"" about Trump's victory should watch this. #SlowClap #NailedIt https://t.co/17nDYnKvmH"
797183242298388481,2016-11-11 21:04:30,RT @shoe0nhead: NEW VIDEO: my 2016 election thoughts. THE LITERAL SHAKENING. https://t.co/vPXVCcQDrv
797107961579634690,2016-11-11 16:05:22,"@mrvasquez1 @dougdrouillard @shelbyefriday Yes, as are lots of other people, including the voters, the staff, and the soldiers themselves."
797107784709980160,2016-11-11 16:04:40,@davehoover @shelbyefriday Because the hypocrisy is absurd. Obama/Hillary have actually been killing people... did she ever condemn?
796878091037462529,2016-11-11 00:51:56,".@shelbyefriday Obama has actually been killing ppl for 8 years, where has your outrage been? Trump says mean things and now ur terrified?"
796877265128734720,2016-11-11 00:48:39,RT @ShapeShift_io: Did you know you can buy ShapeShift shirts and stickers on the @BitcoinStore? Get the goods today! https://t.co/HhqfK2Qu‚Ä¶
796748638756085760,2016-11-10 16:17:33,"@shelbyefriday And when people on the right screamed about Obama's election, did you have sympathy or disdain?"
796748165730877440,2016-11-10 16:15:40,RT @drcateshanahan: Presidents are like weight loss supplements: lots of hype with minimal results sometimes dangerous and still people buy‚Ä¶
796599331184934912,2016-11-10 06:24:15,".@BernieSanders since the vast majority of evil billionaires supported @HillaryClinton, aren't you super glad @realDonaldTrump won??"
796527753017380865,2016-11-10 01:39:49,Major Korean Bank to launch bitcoin-backed remittance service to China https://t.co/ftoIoRlsSu #bitcoin #blockchain #finance #fintech
796412083910778880,2016-11-09 18:00:12,Victories for Eight of Nine Marijuana Initiatives Hasten the Collapse of Prohibition https://t.co/ehFaqAa99B
796375674663669760,2016-11-09 15:35:31,"The Bush dynasty is over, and now too is the Clinton dynasty over. Good riddance to both."
796371007963561984,2016-11-09 15:16:58,"@vinarmani Ehhh, I hear you, but illegal weed enables vast police and jail apparatus, and ruins lives. More laws gives the state power."
796368087280971777,2016-11-09 15:05:22,@TsonicTsunami Reality is that prohibition doesn't work and is horribly unethical. You shouldn't have control of other peoples' bodies.
796367902228279300,2016-11-09 15:04:38,"@vinarmani Taxation is theft, but don't let the perfect be the enemy of the good. Better it be legal and taxed than illegal."
796367516897517568,2016-11-09 15:03:06,"@coolbearcjs @CryptoCoder We temporarily turn coins off when technical issues occur, it'll be back"
796366723930673152,2016-11-09 14:59:57,@MrHodl The one guy that took me up on the offer is up about 50% so...
796366323802632196,2016-11-09 14:58:22,"Weed is now legal in California &amp; a few other states. Prohibition is ending, slowly, but surely. Keep that trend up, America."
796239969350197248,2016-11-09 06:36:16,MarketWatch: Bitcoin price soars as Trump pulls ahead https://t.co/BG6S7CPqqJ
796225654220001280,2016-11-09 05:39:23,I think we can all agree that @JohnKingCNN is the real winner tonight. Narrating stats/analysis on the electoral map for 3 hrs straight
796214582784167937,2016-11-09 04:55:24,Bitcoin surging. The ultimate uncorrelated asset. #finance #ElectionNight
796009855844810752,2016-11-08 15:21:53,"How Zcash Tries to Balance Privacy, Transparency in Blockchain https://t.co/a51oh7Z8E3"
796001526993063936,2016-11-08 14:48:47,"RT @brian_armstrong: If we can get a million people in Venezuela access to sound money (digital currency), may be enough to grow organicall‚Ä¶"
795785998038863872,2016-11-08 00:32:21,"Tomorrow America chooses its President for next 4 yrs, but it can't choose the interest rate on 10Y bonds, which will be far more important."
795782759251931137,2016-11-08 00:19:29,"@drinkACV Ohh... that was sarcasm. I want the government to change, to shrink even a little, but it won't, regardless of the winner tomorrow"
795781669995347968,2016-11-08 00:15:09,@drinkACV What makes you think I would vote for her?
795780903930892288,2016-11-08 00:12:07,@drinkACV Why in the world would you think that?
795762156532826113,2016-11-07 22:57:37,Looking forward to the US Gov not changing in any meaningful way tomorrow. #Election2016 My prediction... it will get bigger next year.
795750531125932033,2016-11-07 22:11:25,Unocoin releases API to power Bitcoin economy in India https://t.co/FUV4xV1lac via @IBTimesUK
795745876115410944,2016-11-07 21:52:55,"RT @GenesisMining: In our latest Expert Interview, our CFO @mkrohn5 was talking extensively with @ErikVoorhees, CEO of @ShapeShift_io: http‚Ä¶"
795641840938655744,2016-11-07 14:59:31,‚ÄúHow to Raise Money on a Blockchain with a Token‚Äù by @FEhrsam https://t.co/C1m9NDdu8l
795639422784065540,2016-11-07 14:49:55,"China‚Äôs New Blockchain Drive: Who‚Äôs Leading it, and Why? https://t.co/h5Lp4CKPPD via @BTCTN #bitcoin"
795302859298471936,2016-11-06 16:32:32,"RT @TaoOfSatoshi: The @exodus_io desktop wallet with @ShapeShift_io is absolutely stunning! I highly recommend downloading it. $DASH
https:‚Ä¶"
795026395600658436,2016-11-05 22:13:58,Colorado Hemp Farmers Are Turning to Bitcoin for Their Banking Woes https://t.co/fV63l6f5V2 via @motherboard
794978849431883776,2016-11-05 19:05:02,RT @OB1Company: Second hackathon demo: integrating @ShapeShift_io into @openbazaar. &amp; a bit of creativity to work around demo screen adapte‚Ä¶
794943066746613760,2016-11-05 16:42:51,RT @AnabellHilarski: Con los Amigos de @ShapeShift_io #CryptoCurrency #Bitcoin @laBITconf https://t.co/VCoaYD5YMr
794674430530162691,2016-11-04 22:55:23,Finally a reason to vote for #Trump2016 https://t.co/7dfC78ZRGH #trump @realDonaldTrump #ElectionDay
794648675666509824,2016-11-04 21:13:02,"@FAcotto @zerohedge That article is just talking about the price crash, which resulted from the ZeroHedge rumor. Self-fulfilling prophecy"
794595390867836928,2016-11-04 17:41:18,ZeroHedge Fakes Bitcoin Panic https://t.co/NSqRPXEJPw @zerohedge #finance #bloomberg #china
794318956261576704,2016-11-03 23:22:51,This Election Has Disgraced the Entire Profession of Journalism https://t.co/tOXyLH75to #trump #hillary #election2016
794284682183516160,2016-11-03 21:06:39,Check out beautiful desktop multi-asset wallet Exodus https://t.co/dIkdH57fCJ  (they're also hiring sr. JS/Node https://t.co/rxhogeyz88)
794218154884939776,2016-11-03 16:42:18,"@Awyee707 @bitfinex There is zero evidence anywhere that it was an inside job. Don't spread misinformation, the internet has enough of it."
794214319353233408,2016-11-03 16:27:04,@a3456gf Why?
794214280581087232,2016-11-03 16:26:54,@marcodelsalto Hacker has not been found to my knowledge. Authorities never seem to actually catch criminals.
794214143230259200,2016-11-03 16:26:22,@Awyee707 @bitfinex Possibly planned? Was it the reptilians?
794200709906345984,2016-11-03 15:32:59,Badass! https://t.co/vvknz3Yw9p
794199985642348544,2016-11-03 15:30:06,"Very impressed with Bitfinex. After hack, they are slowly repaying customers, growing volumes, and improving site https://t.co/JFaqJTrhvb"
794199307003969537,2016-11-03 15:27:24,"@zooko that's a great smile, congrats on this awesome project :)"
794199188305166337,2016-11-03 15:26:56,RT @NTmoney: At some point it will become obvious that a token is only as strong as the developer team behind the token https://t.co/UgK3Zj‚Ä¶
793934058640158720,2016-11-02 21:53:24,"@DavidJools85 Hyperbolic? The head of The Fed in 90's, back in 1966, explained why govs and banks hate gold, because it prevents debasement"
793933709644734464,2016-11-02 21:52:01,@notgrubles I don't assume everyone has a position. Look at my original tweet... I was wondering how many people do.
793904307296817152,2016-11-02 19:55:11,@notgrubles My biases are transparent. The haters never reveal their positions.
793904007190196224,2016-11-02 19:53:59,@EnquiriesStew It's fascinating that he had that position in the '60's. Something changed.
793903775903686657,2016-11-02 19:53:04,Nice! https://t.co/npLoMXfSOr
793862796039434240,2016-11-02 17:10:14,"One of the most eye-opening essays on monetary theory ever written. Gold and Economic Freedom, Alan Greenspan 1966  https://t.co/HSrHcB8PWN"
793862469479391232,2016-11-02 17:08:56,@C1aranMurray Have you ever read this essay by Greenspan? https://t.co/HSrHcB8PWN
793643531575304192,2016-11-02 02:38:57,"I wonder how many Zcash critics hold DASH/XMR? Like BTC holders hating alts, or gold bugs hating BTC, or central banks hating gold."
793643016623796224,2016-11-02 02:36:54,@RNR_0 Thanks for providing an Exhibit A for Webster's Encyclopedia of FUD. Almost all those points have reasonable counterpoints.
793542684627439617,2016-11-01 19:58:13,@BitcoinORama  @ShapeShift_io @zcashco I invested in Zcash because I think it has potential. @jaxx_io integrated ShapeShift a long time ago
793540805700923392,2016-11-01 19:50:46,"@BitcoinORama @jaxx_io @ShapeShift_io @zcashco The genesis event required trust, once, in a justifiable way, imo. It doesn't bother me."
793539318711095297,2016-11-01 19:44:51,Still more transparent than The Fed! https://t.co/uNcjuZafy3
793533568693657601,2016-11-01 19:22:00,@BitcoinORama @jaxx_io @ShapeShift_io @zcashco Zcash is trustless if you assume initial ceremony was executed honestly by at least one party
793525556889346048,2016-11-01 18:50:10,"@BitcoinORama @jaxx_io @ShapeShift_io @zcashco Heh, okay, well I guess we feel differently about the definitions."
793524424490180608,2016-11-01 18:45:40,".@tayloramiles @futur3gentleman Honestly, the next hub probably won't have a geographic center. The web will be the next financial hub."
793520873428791296,2016-11-01 18:31:33,"@BitcoinORama @jaxx_io @ShapeShift_io @zcashco That's a contradictory definition. ""intrinsic"" and ""perception"" are mutually exclusive."
793519081756381184,2016-11-01 18:24:26,"@BitcoinORama @jaxx_io @ShapeShift_io @zcashco Of course. That has nothing to do with ""intrinsic value."""
793518600669716480,2016-11-01 18:22:31,"@randsfinance @Support I have contacted twitter about this twice, they refuse to remove the account. Please report the account also"
793518458042396672,2016-11-01 18:21:57,"New York was the financial hub of the 20th century. It is unlikely to be the hub of the 21st, though every New York‚Ä¶ https://t.co/Ci66sTxSDT"
793518067653369856,2016-11-01 18:20:24,"RT @JeremieGuelat: Nice to see #Bitcoin featured in @UBS latest newsletter, 6 steps in the history of money, couldn't miss the best and mos‚Ä¶"
793517956613349376,2016-11-01 18:19:58,"@BitcoinORama @jaxx_io @ShapeShift_io @zcashco Nothing has ""intrinsic value."" Things are always valued subjectively by a valuer."
793480300529455106,2016-11-01 15:50:20,Five reasons the Winklevoss bitcoin ETF should be approved https://t.co/UtscUbcva9 (#6: adults shouldnt need permission to invest in things)
793475050397585409,2016-11-01 15:29:28,How Statists &amp; Regulators Turned New York Into a Bitcoin Hell Hole https://t.co/8tCsS5uqWP via @WilliamSuberg
793293059517624322,2016-11-01 03:26:18,"@CoinLaffs I have contacted twitter and they rejected it, saying the account ""doesn't violate the terms of service."" Please contact them too"
793285142529740800,2016-11-01 02:54:51,"@GianniDalerta I emailed them and they said account ""does not violate their terms"" and they refuse to remove it. WTF"
793182791127052288,2016-10-31 20:08:08,"For Blockchain Startups, Switzerland's 'Crypto Valley' is No New York (thank god) https://t.co/AJSL5vXp6M @CoinDesk #bitcoin @ShapeShift_io"
793182315417473024,2016-10-31 20:06:15,"New York isnt failing as digital currency hub because Lawsky left, but because he was there in the first place. https://t.co/A0WQmtuiiO"
793180039160340480,2016-10-31 19:57:12,@__Wintermute_ @wikileaks @Snowden I hear ya. I guess I just dont care as much about the fidelity of the circus.
793161846135984128,2016-10-31 18:44:55,"@hernzzzzzz @ShapeShift_io We don't publish it per coin in aggregate, though it could be determined from the txs we post. We should though"
793139724416188416,2016-10-31 17:17:00,"@__Wintermute_ @wikileaks @Snowden I think their ""angle"" is these politicians are horribly corrupt and dangerous. Thus, release for effect"
793139463903858688,2016-10-31 17:15:58,@hernzzzzzz @ShapeShift_io ...did you check our homepage?
793129286735572992,2016-10-31 16:35:32,@__Wintermute_ @wikileaks @Snowden What's wrong with bringing relevant info to light when everyone is paying attention?
793116243427418112,2016-10-31 15:43:42,@__Wintermute_ @wikileaks @Snowden Are you suggesting they have huge leaks on Trump and aren't releasing them?
793104649305755648,2016-10-31 14:57:38,"@donaldmcintyre_ We should make that feature for sure, I'd like it too :)"
793104152024932354,2016-10-31 14:55:39,"@__Wintermute_ @wikileaks @Snowden Don't confuse ""anti-US government"" with ""anti-US"".  The former is, in fact, pro-US."
792950922678718466,2016-10-31 04:46:46,One of the most important institutions in the world... Donate to wikileaks: https://t.co/T5QvWIZWkS @wikileaks
792823524247285760,2016-10-30 20:20:32,"Zcash article in The Economist, Digital money: Known unknown https://t.co/f1EOO8EB53 @zcashco (available now on @ShapeShift_io ) #Blockchain"
792806393396854784,2016-10-30 19:12:28,"@cryptocoinage ""begging the question"" is a specific term, meaning it simply pushes the uncertainty into a new form of the same question."
792793864050397184,2016-10-30 18:22:41,"For the record, as I've stated every time I'm asked, I support SegWit and am very excited to see it being deployed. #bitcoin"
792793549523738624,2016-10-30 18:21:26,"@GreggDourgarian LOL that's a pretty low bar for character, but thanks anyway ;)"
792792426154827776,2016-10-30 18:16:58,"@gillesCadignan Layer 2, by definition, isn't settlement."
792792282374152193,2016-10-30 18:16:24,@AlpacaSW That's a reasonable answer
792792190074236928,2016-10-30 18:16:02,@GreggDourgarian More than we would've liked :)  That's why limits have been low. We will buy more as price settles.
792785916439822336,2016-10-30 17:51:06,"@sajmathieubegue @ShapeShift_io @zcashco Of course my biggest conflict of interest is Bitcoin, since that's what we mostly hold &amp; sell"
792784537071693824,2016-10-30 17:45:37,@KellyannePolls Isn't that exactly what Trump did when Comey did things Trump didn't like?
792784127158124544,2016-10-30 17:43:59,"And the market caps of both have increased. Digital assets are often complimentary goods, strengthening and enablin‚Ä¶ https://t.co/g5bC5tBNnb"
792783731916365824,2016-10-30 17:42:25,"Saying Bitcoin should be a ""settlement network"" begs the question... how many txs should it be able to ""settle?"""
792782977591681024,2016-10-30 17:39:25,RT @ShapeShift_io: Telegram Bot Uses Bitcoin For Cheap International Calls https://t.co/oCIGLhXTOV
792782895203049472,2016-10-30 17:39:06,Zcash is available on ShapeShift. Limits will be increasing as price stabilizes. #privacy #blockchain https://t.co/ei4B1xoJKS
792414010788290561,2016-10-29 17:13:17,ShapeShift Adds Zcash Support As ZEC Markets Go Wild https://t.co/EP9MdFMCcF
792224816757510144,2016-10-29 04:41:29,This is good: ‚ÄúA Letter to the Blockchain Community‚Äù @bierlingm https://t.co/VmPdEMy2K5 #liberty #bitcoin
792218782236147712,2016-10-29 04:17:31,"@johnconnor421 Its cool. Huge speculative bubble right now, but the underlying tech is good. Long term bullish."
792218318853722112,2016-10-29 04:15:40,"@baijorge Instead of a premine, the creators decided to take coins over time (over four years), and sold some of that to investors"
792191901017317376,2016-10-29 02:30:42,"Hello $700, my old friend  https://t.co/leaQS73ohI #bitcoin"
792157678063595520,2016-10-29 00:14:42,@notgrubles @zooko @zcashco Monero is good too. I'm happy multiple projects are working on this important feature.
792157490905358336,2016-10-29 00:13:58,@BitcoinORama @AlpacaSW It would be very stupid to try to mix through ShapeShift. We publish every transaction on the homepage and API
792151991837347841,2016-10-28 23:52:06,"@notgrubles @zooko @zcashco For those who care about financial privacy, yes."
792148027020484609,2016-10-28 23:36:21,@AlpacaSW So everything other than Bitcoin is snake oil then? Is that your position?
792146993241989120,2016-10-28 23:32:15,@AlpacaSW The most popular asset we sell is Bitcoin. Is that snake oil? Or just the assets you don't like are snake oil?
792146426721480704,2016-10-28 23:30:00,"Congrats to @zooko and @zcashco team on a smooth launch of Zcash. Despite the hype and price bubble, it's a blessing to humanity. #privacy"
792145590490509313,2016-10-28 23:26:40,"@AlpacaSW @jimmysong I find it interesting that you never mention we buy ""snake oil""... perhaps because that would reveal your speciousness?"
792143824344580096,2016-10-28 23:19:39,".@jimmysong And then I started realizing some of these assets are not mutually exclusive, but in fact complimentary."
792140006139629569,2016-10-28 23:04:29,"The market for privacy has been unleashed. A huge speculative bubble, to be sure, but a great day for the rights of‚Ä¶ https://t.co/fJoNt3KFKW"
792114661579563008,2016-10-28 21:23:46,.@AlpacaSW @jimmysong I've been told a thousand times that Bitcoin is an obvious scam. I am skeptical of the prognostications of do-gooders.
792111707199934465,2016-10-28 21:12:02,"@jimmysong  I am still very much a Bitcoiner. My tweet did not imply everyone, but a sect of Bitcoiners who spew vitriol."
792110801419014144,2016-10-28 21:08:26,"@bhec39 My allegiance is to a free market in money, not to any specific brand. That said, most of my crypto wealth is BTC, &amp; I'm bullish"
792101418203160576,2016-10-28 20:31:09,@btc_joe Healthy skepticism is always healthy :)
792099598248534017,2016-10-28 20:23:55,"@cryptoshaman Bleh, yeah thanks, will try to get that down"
792099529193435136,2016-10-28 20:23:38,"@btc_joe It's wholly worthy of poking fun.... but lots of people just shit on everything that moves, and have been since Bitcoin."
792097312004644864,2016-10-28 20:14:50,"@bhec39 So even when you're provably factually wrong, you'll dismiss it. Gotcha."
792092657216462848,2016-10-28 19:56:20,@donaldmcintyre_ @msantoriESQ @Alex_Amsel The incumbents are the ones who stopped pushing into the frontier.
792092317624639488,2016-10-28 19:54:59,@a3456gf It's more like 98% ;)
792092192852418560,2016-10-28 19:54:29,"@bhec39 Well don't let facts get in the way, but in past 24 hrs are three tweets speaking positively of Bitcoin."
792065177608785920,2016-10-28 18:07:08,"@nvk @jonhbit @DocHex It's 10%.  It means their rev is 10% less, but if price is 20% higher due to good code, then where is the loss?"
792064910104506369,2016-10-28 18:06:05,"I find it a common practice for Bitcoiners to lob superficial insults at other digital assets, just as goldbugs did/do against Bitcoin."
792064133562638336,2016-10-28 18:02:59,"@vinarmani @nvk Scheme in British English is not derogatory, but in American English it is. I assume you mean the latter."
792063934127759361,2016-10-28 18:02:12,"@BlueDavid @nvk That's a reasonable position... it's super speculative, and a new model. Buyer/trader/user beware"
792063757006405632,2016-10-28 18:01:30,"@nvk Have you heard of zcoin?  Zcash is open source, if you don't like the rules, fork it and change them. What's the problem?"
792063402302664709,2016-10-28 18:00:05,"@nvk @BlueDavid Forcing someone to opt out is not the same as offering someone to opt in. Taxes are coercion, open source software is not."
792062957140049920,2016-10-28 17:58:19,"@nvk Lol that is voluntary. If you ""want to participate"" in Walmart's deals you are ""taxed"" their profit rate, too, huh? :)"
792062612062113792,2016-10-28 17:56:57,"@vinarmani @nvk Con implies a lie. Everything is known to all parties. It's transparent, and voluntary."
792062470873427968,2016-10-28 17:56:23,"@BlueDavid @nvk And if the team did well enough to encourage millions of users around world to use it, is that ""centralization?"""
792061630783692800,2016-10-28 17:53:03,"@nvk And where is that math coming from? And what do you mean, ""just to me?"""
792059533283594240,2016-10-28 17:44:43,"@nvk Taxes aren't voluntary, don't use that word to describe voluntary arrangements"
792057296507457536,2016-10-28 17:35:49,".@nvk It's a 10% fee, and it is on mining, not every transaction, and only 4 yrs. It pays the investors and engineers who made it happen."
792036044614938624,2016-10-28 16:11:23,@hq83bnn9 lol you still don't get it...
792035558042116096,2016-10-28 16:09:27,@AlpacaSW @WhalePanda @Dennahz Snake oil implies fraud.
792035259990675460,2016-10-28 16:08:15,".@bulgar1an @hq83bnn9 It's absolutely full of risks... as are all projects in this industry, and on any frontier."
792034841780826112,2016-10-28 16:06:36,@hq83bnn9 You didn't get my joke. Predictable.
792034536649400321,2016-10-28 16:05:23,Livestream of Zcash launch https://t.co/X0Tx2n8euE
792022711497220097,2016-10-28 15:18:24,.@hq83bnn9 Are you talking about the Federal Reserve?
792019408356978688,2016-10-28 15:05:16,@AlpacaSW @WhalePanda @Dennahz Selling something at a profit is how every business and laborer works. Why does that bother you?
792016163756662785,2016-10-28 14:52:23,"@jedigras @zcashco  As long as its transparent and open source, I have no problem with mine supply schedules"
792015812525629440,2016-10-28 14:50:59,"@anondran not at that price, but im more interested in a loan. I can buy at mkt price at exchanges soon."
792015172114059264,2016-10-28 14:48:26,@jedigras @zcashco okay buddy
792014891938750464,2016-10-28 14:47:19,"If anyone acquires Zcash and wants to loan it out to me for extra profit, pls email me erik at shapeshift dot io"
792014601365753856,2016-10-28 14:46:10,@DiegoLeonU no... that is misspelled
792014491252879361,2016-10-28 14:45:44,"@jedigras @zcashco There is no premine and asking for mutual trade is not dumping, but dont let facts get in the way of your opinions"
791985830126465024,2016-10-28 12:51:50,"@sajmathieubegue To people like you, Bitcoin was the first p&amp;d scamcoin. I think tokens will be everywhere."
791816551817027584,2016-10-28 01:39:11,Swiss Rail System SBB just enabled Bitcoin purchases at every ticket kiosk https://t.co/TJpaQuVnqD
791785894608973824,2016-10-27 23:37:22,"That is a beautiful, and correct, answer. https://t.co/uwyw6PlLLm"
791782909560532992,2016-10-27 23:25:30,"Interesting... @zooko has been pondering cryptocurrency at least as long as Satoshi Nakamoto, who cited him https://t.co/mMNDuZkYmn #bitcoin"
791781075466932225,2016-10-27 23:18:13,"What is the ""correct price"" for a Zcash after day one, when only 100 will exist, but with tens of millions of $ in demand?"
791759351098712064,2016-10-27 21:51:54,"@hq83bnn9 It's working out fine, and now ETH and ETC communities can each do their own thing. ETH still 30X higher than ICO price."
791759009975967745,2016-10-27 21:50:32,@DiegoLeonU pls email me at erik at shapeshift dot io to discuss
791758859840868353,2016-10-27 21:49:57,"@hq83bnn9 @__Wintermute_ @zcashco It will respond how their lawyers advise them. And the zcash blockchain will continue, open source."
791758458240376832,2016-10-27 21:48:21,"Someday soon, the world will realize that blockchain tokens make great replacements for software licenses. Raise money-&gt;liquid, transferable"
791757852524158976,2016-10-27 21:45:56,Awesome work! https://t.co/YOIe7IOhtA
791757610047315968,2016-10-27 21:44:59,@hq83bnn9 @zcashco Maybe learn about things before you comment on them. Zcash is open source and decentralized.
791755210364366848,2016-10-27 21:35:26,".@hq83bnn9 @zcashco Speculative bubbles are natural, and those who were called fools for buying BTC at $1 look pretty smart now, don't they?"
791753605304885248,2016-10-27 21:29:04,"@PalaceSTL @zcashco If you'd like to chat, email me at erik at shapeshift dot io"
791748598140579840,2016-10-27 21:09:10,@CryptoGambleh @zcashco Investors' are delivered in 12 installments over a year (slightly different than founders reward)
791748179280613377,2016-10-27 21:07:30,Zcash futures are going crazy. Anyone want to buy today some of mine for future delivery? (serious question) @zcashco
791683197016772608,2016-10-27 16:49:17,"While in Munich, I sat down with Genesis Mining to discuss all things Bitcoin https://t.co/tffBHiOoq1"
791674944560115712,2016-10-27 16:16:30,"@vinarmani @coindesk I am both into it, and it is also exuberance... hard to claim ""irrational"" until hindsight. It's worth watching."
791671660587851776,2016-10-27 16:03:27,Investors Are Going Wild for a Digital Currency Called Zcash (And It's Not Even Out Yet) https://t.co/72xjD2VQTp via @CoinDesk
791351156987396097,2016-10-26 18:49:53,@oliverbruce @DCGco Feel free to email me at erik at shapeshift dot io   This is not a solicitation or offering for sale of securities.
791348843698720769,2016-10-26 18:40:41,@oliverbruce @DCGco Jeez tough crowd :)  Glad you like it!
791347747718729728,2016-10-26 18:36:20,Some stats on ShapeShift's growth to date... https://t.co/hwcdEnrrSW #bitcoin #ethereum #blockchain #tokenization #startup @DCGco
790993657549565953,2016-10-25 19:09:18,"Yes, ShapeShift will be adding support for Zcash.  @zcashco @ShapeShift_io #bitcoin #blockchain #privacy"
790993279894495232,2016-10-25 19:07:48,"RT @aantonop: ""Major banks complete first international transaction using a blockchain""

You mean, the same thing bitcoin has done several‚Ä¶"
790596062637535232,2016-10-24 16:49:24,Doing live AMA right now @ Blockgeeks Erik Voorhees: Founder &amp; CEO at ShapeShift https://t.co/JRNVuYSXBx via @Blockgks #bitcoin #blockchain
790579207097069568,2016-10-24 15:42:25,WeFunder Becomes First Equity Crowdfunding Platform to Accept Bitcoin https://t.co/KKXq9vQ4SG via @bitpay
790571127487639552,2016-10-24 15:10:19,RT @BITPANDAcom: #BitcoinQuote of the day @ErikVoorhees about the value of #Bitcoin #BitPanda https://t.co/5hKjebXUCU
789948764043685888,2016-10-22 21:57:16,ZCash GUI Wallets https://t.co/TDRKbfcyfU via @wordpressdotcom
789948066077945856,2016-10-22 21:54:30,@MashuriBC @mikebelshe CS Lewis said it better ;)
789947825811447808,2016-10-22 21:53:32,@cvdsanduhh Youre welcome to keep believing in the missionary.
789897941230071808,2016-10-22 18:35:19,"It is not the corrupt politician we should fear, but the uncorrupted. The corrupt, at least, acts in at least one person's true interest."
789894638450507776,2016-10-22 18:22:11,"RT @Melt_Dem: my best returning investment? 

the @ShapeShift_io @CoinCap_io tool makes it easy to track #bitcoin and other digital currenc‚Ä¶"
789498145902256129,2016-10-21 16:06:40,U.S. to Swiss banks: Please let Americans open accounts https://t.co/r0VApYWVPy via @CNNMoney #LOL
788934206944456705,2016-10-20 02:45:47,"RT @niccary: At @YouthBusinessUS we help underserved young adults start businesses, improving their skills, creating jobs and better future‚Ä¶"
788451422207483906,2016-10-18 18:47:22,RT @wikileaks: BREAKING: Multiple US sources tell us John Kerry asked Ecuador to stop Assange from publishing Clinton docs during FARC peac‚Ä¶
788221196055613440,2016-10-18 03:32:32,"Quote most apt for Bitcoin... ""Any sufficiently advanced technology is indistinguishable from magic."""
788213466687340544,2016-10-18 03:01:49,NetBet Becomes the UK's First Licensed Gambling Site To Accept Bitcoin https://t.co/Yq7qRQcJcG via @bitpay
788206329429012480,2016-10-18 02:33:27,"RT @wikileaks: We can confirm Ecuador cut off Assange's internet access Saturday, 5pm GMT, shortly after publication of Clinton's Goldman S‚Ä¶"
787699383068307456,2016-10-16 16:59:02,How Blockchain Startups Are Revolutionizing Venture Capital https://t.co/dd8vvfoiUY via @CoinDesk
786923847152836608,2016-10-14 13:37:20,@neomadic1 @XTRAPOLATING @ShapeShift_io Shhhhhhhhhhh
786909579665735681,2016-10-14 12:40:38,What is Zcash? https://t.co/8n1HS07Btf via @smithandcrown
786906520030097411,2016-10-14 12:28:29,"@XTRAPOLATING @ShapeShift_io So it can scan QR codes. Not critical, you can disable if you prefer."
786905065621565440,2016-10-14 12:22:42,"@alecheverriaso1 Then again, taxation is unnecessary.  Its only done because so few peolle suppprt what it is spent on."
786763974452711425,2016-10-14 03:02:03,@alecheverriaso1 Yeah thats called stealing because you want something someone else has. Nothing noble about that.
786747380825677824,2016-10-14 01:56:07,@alecheverriaso1 Taxation is the opposite of sharing. It teaches the world to use force to get what you want.
786701781434822656,2016-10-13 22:54:55,"If everyone on Earth could read one simple book on economics, it's this: Economics in One Lesson  (free download) https://t.co/WiYwoUtCmp"
786691705252769792,2016-10-13 22:14:53,"@alecheverriaso1 @KimDotcom If scarcity is ""fake,"" why is taxation needed?"
786689223252447232,2016-10-13 22:05:01,"@hohhle @ShapeShift_io The ETC network is not under attack, so no issues occurring on that chain currently."
786679234328756224,2016-10-13 21:25:19,"@alecheverriaso1 @KimDotcom We all need food. Should governments tax us and take care of that, too?"
786628145835220993,2016-10-13 18:02:19,"""Central banks are organisations committed to conning the market into believing their version of economic reality."" - @BitMEXdotcom blog"
786611777123430400,2016-10-13 16:57:16,"ShapeShift customers, please read regarding Ethereum asset orders (update on the Ethereum network attack) https://t.co/XsBj9azQ7u"
786587976490856448,2016-10-13 15:22:42,"@EfeKaranci @ShapeShift_io Hi Efe, we decided to take the Splitter offline as very few were still using it, and it had maintenance issues"
786413409562611713,2016-10-13 03:49:02,@lightcoin @zooko @ArthurB Are we really going to create a new speculative enterprise every time we want to innovate? Stick with GE!
786412887799500805,2016-10-13 03:46:57,@TuurDemeester @zooko @krakenfx @Bitstamp @YourBTCC Im pretty sure BTC-e predates those three. I dont think they were summer 2011.
786408782498701312,2016-10-13 03:30:39,"@AriMNazir @Whyisthat24 They were contracted by the government, no? Was it gov or the private market paying their salaries and guiding them?"
786408187054338048,2016-10-13 03:28:17,".@KimDotcom If you want that for yourself, I wouldn't stand in your way. I prefer liberty, and wish people wouldn't stand in mine."
786384520517853185,2016-10-13 01:54:14,Thinking About Voting? Read This First https://t.co/SUwRkNQuMW
786352065710653440,2016-10-12 23:45:16,"The @SEC has literally taken years to decide whether the ""free people"" of America are permitted to buy and trade a Bitcoin-backed ETF. #USSA"
786351670061993984,2016-10-12 23:43:42,"@Whyisthat24 @AriMNazir Well that's a great question, but twitter is inadequate to discuss it. (but no, guns don't legitimize property)"
786349849843150849,2016-10-12 23:36:28,@Whyisthat24 @AriMNazir Private borders are fine. National borders are not... primarily because they violate private borders.
786349042246701056,2016-10-12 23:33:15,"@Whyisthat24 @AriMNazir Some humans do, but it only becomes institutionalized and entrenched when governments get involved."
786348595444273152,2016-10-12 23:31:29,.@KimDotcom There is nothing honest and decent about stealing half of peoples' income and regulating the shit out of everything they do.
786348154610257920,2016-10-12 23:29:44,RT @danieljmitchell: Money laundering laws treat innocent people like criminals and are a costly failure in the fight against crime https:/‚Ä¶
786347981125496832,2016-10-12 23:29:02,.@AriMNazir National borders are little more than lubrication for racism.
786299397059452928,2016-10-12 20:15:59,Police make more arrests for marijuana possession alone than for all violent crimes combined.  https://t.co/rgdu7RfvOW #USSA
786256638793568257,2016-10-12 17:26:05,"@calibitcoin @ShapeShift_io Hells yes, asap once the genesis block occurs."
786254570229870593,2016-10-12 17:17:52,RT @ShapeShift_io: It‚Äôs here! #Augur #REP has been added to ShapeShift! Buy or sell #REP instantly @AugurProject: https://t.co/odGLHd9948 h‚Ä¶
786010682453917696,2016-10-12 01:08:44,"RT @PurseIO: Sept was a record month for altcoins! üöÄ

#1 ETH @ethereumproject
#2 XMR @monerocurrency
#3 DOGE @dogecoin

#SaveWithAltcoin üôå‚Ä¶"
786004176182517762,2016-10-12 00:42:53,"@RobertNeuwirth txs is also up, so what do u mean?"
786003837689532416,2016-10-12 00:41:32,@libertyepodcast I guess that's why Windows keeps getting.... better?
785919667990695936,2016-10-11 19:07:05,@bitcoinpulse You can click the BTC button to see that. But that isn't as useful since swings in exch rate will distort the picture.
785919554396368896,2016-10-11 19:06:38,"@RobertNeuwirth BTC volume is volatile with exchange rate, better to look at USD volume to see the trend."
785876369934721024,2016-10-11 16:15:02,"The growth of Bitcoin worldwide, in one chart. The progress, while not yet exponential, is clear. https://t.co/P4grq9ibMO"
785868833823133696,2016-10-11 15:45:05,Augur UI Update &amp; Progression https://t.co/NrKfvcHA0O via @AugurProject
785581113963982849,2016-10-10 20:41:47,Membership tokens are going to be a thing...‚ÄúDecentralized Capital‚Äôs Membership Sale: Alternative to the ICOverload‚Äù https://t.co/8d2lCxO1y5
785555859954774016,2016-10-10 19:01:26,@RouletteRun Obviously we didnt.
785555548863287296,2016-10-10 19:00:12,@SchoenfeldH @TaylorGerring LOL as if either of them would reduce government. Last time that happened was 1946.
785522132415418368,2016-10-10 16:47:25,"RT @RobMarinello: Just installed @exodus_io #bitcoin (and eth, dash,...) wallet and it looks so good. Exchange with @ShapeShift_io included!"
785325376155201536,2016-10-10 03:45:34,Anyone who thinks either of these two clowns is fit to rule them is in dire need of some self-respect. #election #Debates2016
785183253019828224,2016-10-09 18:20:50,"@rothbard73 @ShapeShift_io Do you mean ""contract payments?"" We already do"
785182956255973377,2016-10-09 18:19:39,"Three Years After Ulbricht‚Äôs Arrest, Judges Re-Examine Silk Road Case https://t.co/OCPDJfvVOG"
784776543985819650,2016-10-08 15:24:43,@Get_Liquid Then short them and stop bitching
784463702229553152,2016-10-07 18:41:35,"RT @cguida6: Oh snap, looks like I gotta try @exodus_io. Exchange cryptoassets *inside your desktop wallet* with the @ShapeShift_io API! ht‚Ä¶"
784415382039777280,2016-10-07 15:29:35,ShapeShift has surpassed 100 integrations with industry partners. We will keep working to connect the ecosystem. #bitcoin
784188164009103360,2016-10-07 00:26:42,@lethos333 @coindesk Im not selling it. Im buying it.
784131076130156544,2016-10-06 20:39:51,"@lethos333 @coindesk The initial trust aspect is a risk, and worthy of discussion, but I think the risk is manageable."
784130854876356608,2016-10-06 20:38:58,"@lethos333 @coindesk Opposition to founder's rewards, in principle, comes from those who want others to work for them free."
784060451537588224,2016-10-06 15:59:13,"RT @ethereumproject: New Geth release v1.4.16 ""Dear Diary"" to fix recent DoS attacks. https://t.co/EUModHjE0X #golang #Ethereum #DoS"
784058513555202048,2016-10-06 15:51:31,@__Wintermute_ @coindesk How is a price a scam? Do you mean you think the price is too high?
784058390653698048,2016-10-06 15:51:02,@lethos333 @coindesk Something tells me Satoshi wouldn't be opposed to the existence of Zcash.
784057963354861568,2016-10-06 15:49:20,"Jaxx wallet now has support for Augur's REP :)  You can buy or sell it in the app - click ""Send"" then click the Sha‚Ä¶ https://t.co/pmzmWoE1In"
784041462346289152,2016-10-06 14:43:46,Demand for Zcash Mining Grows as Blockchain Launch Approaches https://t.co/1nv8CGOD19 via @CoinDesk
783742237142159360,2016-10-05 18:54:45,Video of the beautiful @Exodus_io wallet with native @ShapeShift_io integration https://t.co/wq8ONwu01A #bitcoin #ethereum #dash #blockchain
783741735146926080,2016-10-05 18:52:45,@hewitt_david Why? Not going to listen to a whole podcast without a synopsis
783733264737460225,2016-10-05 18:19:06,"@AriMNazir Just pinged you on the slack chat, sorry hadn't seen your message!"
783719751025438720,2016-10-05 17:25:24,@NTmoney Viacry.pt and CryptoDog https://t.co/agg1Z8AryC
783718891524460544,2016-10-05 17:21:59,RT @feeonline: Adam Smith‚Äôs credentials on the philosophical front are every bit as solid as those on the practical economic... https://t.c‚Ä¶
783713580176715776,2016-10-05 17:00:52,"@DillonSauers @ShapeShift_io That's very nice of you, but ShapeShift isn't a wallet :)"
783713397204398080,2016-10-05 17:00:09,"Just saw the #SnowdenMovie last night, it was as good as I hoped it would be. An amazing story, and a true hero. 1984 is indeed here already"
783702407825895424,2016-10-05 16:16:29,One of the best user-facing products to ever be built in cryptoland... everyone needs to try out Exodus wallet. Utt‚Ä¶ https://t.co/hnxX6KVt3z
783701181419835393,2016-10-05 16:11:36,"Augur REP now available on https://t.co/UPChiaZqiy  Buy or sell with Bitcoin, Ethereum, Monero, Litecoin, and 30+ other blockchain assets."
783697327101849602,2016-10-05 15:56:17,Some of the @ShapeShift_io team and friends in Shanghai for #devcon2 https://t.co/IlSRvHiFeD #ethereum #blockchain
783514538234765312,2016-10-05 03:49:57,RT @ShapeShift_io: NEW ADDITIONS: We have added Augur (REP) &amp; SingularDTV (SNGLS). Buy/sell REP &amp; SNGLS instantly. No account needed! https‚Ä¶
783464937645494272,2016-10-05 00:32:51,RT @geminigoldsaint: No Worries COINCAP in your pocket !!! https://t.co/AAHnyE691K via @newbiumcoin @ShapeShift_io
783434349383331840,2016-10-04 22:31:19,"Clinton Foundation Allegedly Hacked Exposing Thousands Of Donor Databases; ""Pay To Play"" Folder https://t.co/uoZClB8yG1 #USSA #corruption"
783415429091823620,2016-10-04 21:16:08,"@theonevortex Obviously! But if it's destroyable, then it's not long for the world anyway. #darwin"
783414436476260352,2016-10-04 21:12:11,"Get the beloved @ShapeShift_io t-shirt, men's and women's https://t.co/caocAoDVFq (Use coupon code 10OFFCRYPTOSWAG for 10% off) #bitcoin"
783408012140556288,2016-10-04 20:46:39,"Augur's REP token is finally released, trading on multiple markets already. Will be live on @ShapeShift_io soon. @AugurProject #ethereum"
783407818011398144,2016-10-04 20:45:53,"Every time someone attacks a blockchain platform and fails to kill it, the platform gets stronger, and more worthy of building upon."
783335760082591744,2016-10-04 15:59:33,RT @LiteBitCo: Amazingly smooth interface on new @exodus_io platform :100: #bitcoin #takebackcontrol https://t.co/rEkE4CaDyj
783022285217144832,2016-10-03 19:13:55,.@NTmoney @lopp @ConnectExecs Debating the merits of a specific project is valid. Wholesale dismissing the model of token sales is not.
783009011633311744,2016-10-03 18:21:10,"@ConnectExecs @lopp Was it sketchy when Bitcoiners invested their bitcoin tokens in the ETH crowdsale? They're only up 3,000%"
783007952563085312,2016-10-03 18:16:58,RT @brianeklein: Thrilled to chair and today officially launch the Digital Currency &amp; Ledger Defense Coalition https://t.co/7no0fEDyVP
782962102344351744,2016-10-03 15:14:46,"@OptimistLib @juscamarena Digix, Gnosis, and Oraclize are worth checking out."
782960573394718721,2016-10-03 15:08:42,Video: How to Convert Digital Currencies with Shapeshift https://t.co/RG6eyQCwDw via @YouTube #bitcoin #ethereum #blockchain @shapeshift_io
782951812655525889,2016-10-03 14:33:53,@AlanStruna @NTmoney Which financial market does that not apply to?
782951677460566016,2016-10-03 14:33:21,@PEPDigest Yes good point
782951569855647744,2016-10-03 14:32:55,"@benjaminjwhitby I expect private blockchains to be widely used for some corp projects, but public chains will dominate, like the web."
782761428864212992,2016-10-03 01:57:22,"@NTmoney Not these specific projects, no, and im certainly not endorsing them."
782761014504808452,2016-10-03 01:55:43,"@NTmoney @GreggDourgarian @AroundTheBlock_ I think the proper term is ""incredibly speculative and risky"""
782713960285868032,2016-10-02 22:48:44,"@juscamarena @kyletorpey @DontPanicBurns Not that I personally use, but I am but one individual."
782713407212359680,2016-10-02 22:46:33,@benjaminjwhitby Lol I have no idea what you're asking. 140 chars was insufficient but I admire the attempt :)
782713170855010304,2016-10-02 22:45:36,@juscamarena @kyletorpey @DontPanicBurns The one we're building. You are not aware of it yet. That's okay.
782712889413033984,2016-10-02 22:44:29,".@NTmoney I don't disagree there is exuberance, whether it is rational or not will be known only in hindsight. Most .coms failed too... most"
782712486663364608,2016-10-02 22:42:53,@juscamarena @kyletorpey @DontPanicBurns For paying gas fee on the execution of smart contracts and dapps. These things are real.
782656264597741568,2016-10-02 18:59:29,@kyletorpey @DontPanicBurns Ive tried to pay gas fees with BTC.... didn't work well ;)
782623246634012672,2016-10-02 16:48:17,"ICONOMI, FirstBlood, and now Singular DTV all raise over $5m in minutes in token sales this past week. #FrictionlessFinance"
782622431034773504,2016-10-02 16:45:02,"Along with money, crypto has decentralized investment. All manner of financial gatekeepers are being disintermediated by blockchains."
782579436805758977,2016-10-02 13:54:12,@kyletorpey Try imagining that not every token is for money use. Common payment is but one use of many for tokens.
782427082844282880,2016-10-02 03:48:47,"Many of the world's greatest people were, in their time, enemies of the state. Today, @snowden comes to mind."
782420219922780161,2016-10-02 03:21:31,@kyletorpey I responded to you... I agree many of those responses were inadequate.
782363342002282497,2016-10-01 23:35:30,"@jessecouch @lethos333 @zcashco @AugurProject Sure, feel free to phrase it that way if it helps you. I invest in things im excited about."
782283182066372608,2016-10-01 18:16:59,@EN4277 Which pair and which rate is horrible? What are you comparing to?
782254472865062912,2016-10-01 16:22:54,RT @BankToTheFuture: @Crypto_FreeMan @Sicarious_ @KimDotcom We will allow a range of #Altcoins that will automatically convert to #Bitcoin‚Ä¶
782209604616794112,2016-10-01 13:24:37,Bitcoin rising in India... finally! https://t.co/6JIcYfBuOy
781922217638502401,2016-09-30 18:22:38,Gonna be a great fall... two of the most exciting digital assets ever are going live soon:  ZCash and Augur's REP @zcashco @AugurProject
781885871943327745,2016-09-30 15:58:13,"Great piece from Chicago Tribune today...A principled option for U.S. president: Endorsing Gary Johnson, Libertarian https://t.co/Bs7E6WwYiy"
781576543524884482,2016-09-29 19:29:03,@corintxt @NTmoney That just means market is riskier and more volatile... yet might still grow faster than otherwise.
781542039322107904,2016-09-29 17:11:57,@Alex_Amsel @Maddx9 @BankToTheFuture @KimDotcom @ShapeShift_io Yeah I would follow Ownage by @Alex_Amsel carefully :)
781536400315297792,2016-09-29 16:49:32,RT @Maddx9: @BankToTheFuture @KimDotcom Superb idea! I like the use of @ShapeShift_io in this. Very cool.
781536302013358080,2016-09-29 16:49:09,.@Maddx9 @BankToTheFuture @KimDotcom With @ShapeShift_io there is little difference in paying between one coin or another. #liquidity
781523403857461248,2016-09-29 15:57:54,@jer979 @ShapeShift_io email at erik at shapeshift dot io
781431611665461248,2016-09-29 09:53:09,SpaceX's Big Fucking Rocket ‚Äì The Full Story - https://t.co/y7v2lH0F6h via @waitbutwhy
781421115004497920,2016-09-29 09:11:26,"RT @Vaultoro: It was a pleasure hanging out with @ErikVoorhees at Oktober fest in Munich. So many pioneers were here, fantastic convo's and‚Ä¶"
781087687310729216,2016-09-28 11:06:31,"RT @rogerkver: #TrumpWon? #HillaryClinton won?
The poll results are in! https://t.co/yPk3cpiSRp"
780855897140658180,2016-09-27 19:45:28,Bitcoin in Bavaria https://t.co/ATzw03L6Ih
780657471551569920,2016-09-27 06:36:59,"Step by step, Bitcoin takes over. https://t.co/PhmA2laKep"
780449767683829760,2016-09-26 16:51:39,RT @bitwala: @ErikVoorhees The DAO a mistake? We're still working at a frontier. An industry without explosions doesn't move forward. #bitc‚Ä¶
780353515810066432,2016-09-26 10:29:11,RT @GigaBitcoin: Inside The Chinese Bitcoin Mine That's Grossing $1.5M A Month https://t.co/lMVa92SViY
780345365275041792,2016-09-26 09:56:47,RT @ShapeShift_io: The ShapeShift booth has been getting a lot of love today. Come by and say hello! #bits16 https://t.co/Jjp4cUz49O
778736761685946369,2016-09-21 23:24:46,ShapeShift integrates with Wirex debit card! https://t.co/1tLwm6AUim
777192235297144832,2016-09-17 17:07:23,Ken Rogoff‚Äôs Government Debt Default Plan | Zero Hedge https://t.co/8dwIJs7eMe #WarOnCash
777171610730135552,2016-09-17 15:45:25,"Heading to Shanghai for #DevCon2  It's my first Ethereum event, very excited to meet new people and explore a new branch of this industry."
777001108786995203,2016-09-17 04:27:54,‚ÄòKeys to the Kingdom‚Äô: Ulbricht Defense Slams Court in Latest Brief https://t.co/nMivkypMru
776815701361164288,2016-09-16 16:11:10,"@Vlad_Roberto @CollinCrypto Ehhhh you may want to look into further. The transactions don't reveal sender, recipient, or even amount."
776814195396399104,2016-09-16 16:05:11,"@Vlad_Roberto @CollinCrypto In what way is it not anonymous, when used properly?"
776813572483485696,2016-09-16 16:02:42,#MrRobot drags Bitcoin into its dystopian nightmare:  https://t.co/WSZGKIRKVf via @WSJspeakeasy
776805897523699713,2016-09-16 15:32:12,@markcross Sorry what's the question?
776555844045451265,2016-09-15 22:58:35,@BraveTheWorld @EricRSammons @hernzzzzzz @lightcoin @delmoi I agree largely with that also... BTC should move carefully. Othrs can move fstr
776555410761261056,2016-09-15 22:56:52,Was saddened to hear @ReidHoffman on CNN advocating progressive taxation yesterday. There is no virtue in donating other peoples' money.
776554774971846656,2016-09-15 22:54:20,@BraveTheWorld @EricRSammons @hernzzzzzz @lightcoin @delmoi Agreed... one reason of many I support multi-chainism.
776554344267128832,2016-09-15 22:52:38,"@BraveTheWorld @lightcoin @delmoi @EricRSammons I've never advocated replacing them, and I respect most of what they do."
776549886279884801,2016-09-15 22:34:55,"RT @maraoz: Zeppelin: a New Standard for Secure Blockchain Applications (general announcement)
https://t.co/cvWQtaIeEZ"
776510731223117824,2016-09-15 19:59:19,@coolbearcjs @zoidbergbtc https://t.co/8l6Bt69s0i
776510612935315456,2016-09-15 19:58:51,EvilCorp! https://t.co/1wnBowMHfl
776493695939977216,2016-09-15 18:51:38,One of the most well-designed products ever created in the industry... Exodus (multi-asset desktop client)  https://t.co/ylFMNucXqS #bitcoin
776478974532648961,2016-09-15 17:53:08,@lightcoin @delmoi @EricRSammons So hundreds of projects should just wait for Core so they can build on BTC?
776460846994034688,2016-09-15 16:41:06,@lightcoin @delmoi @EricRSammons Why do none exist yet?
776460473868759040,2016-09-15 16:39:37,Futures market is live for Zcash... already implying over $35 price per coin. https://t.co/ARefP6Qjct
776160050599514112,2016-09-14 20:45:51,RT @EricRSammons: Spot-on article by @ErikVoorhees on problems w/ #Bitcoin maximalism. Let's not fall back into a new centralization. https‚Ä¶
776141850168074240,2016-09-14 19:33:31,"Non-Bitcoin blockchains are not ""disrespectful to Satoshi."" My response to Paul Sztorc's Maximalism https://t.co/OYIXB8WMan @TuurDemeester"
776077318527655936,2016-09-14 15:17:06,RT @ShapeShift_io: I added a video to a @YouTube playlist https://t.co/3ALBGtNki5 How to Deposit Digital Assets for https://t.co/Mpkm7tmR5n‚Ä¶
776059267459584000,2016-09-14 14:05:22,@snak3Johnson @bhec39 @zerohedge Im under no delusion that either party is respectible or worthy of governing the lives of others.
775920539760074752,2016-09-14 04:54:07,RT @BigBaeag: @Forbes How many articles are you going to write about #bitcoin before I can pay you in #Bitcoin to avoid this: https://t.co/‚Ä¶
775906882305261568,2016-09-14 03:59:51,@AriMNazir @ShapeShift_io Very likely...
775906183588810752,2016-09-14 03:57:04,This Is How Much It 'Costs' To Get An Ambassadorship: Guccifer 2.0 Leaks DNC 'Pay-To-Play' Donor List | Zero Hedge https://t.co/8cqC7GsNRt
775903458557825028,2016-09-14 03:46:14,@AriMNazir @firstbloodio Hell yes! Been keeping an eye on that
775903359505141760,2016-09-14 03:45:51,You Can Now Send A Payment To Anyone In The World Via iMessage via @forbes https://t.co/UBBNJrKDlJ #iphone7 #ios10 #Bitcoin #NoBorders
775900043547058178,2016-09-14 03:32:40,".@AriMNazir Blockchains make digital things more tangible, more real. Esports will inevitably become more exciting, and more competitive."
775890759518003200,2016-09-14 02:55:47,".@micahspruill Well, tangentially we are. One of many reasons why @ShapeShift_io will dominate the Earth"
775789161559097344,2016-09-13 20:12:04,Blockchain-based ownership of game items will be an entertainment #megatrend over the next 5-10 years https://t.co/DeSlU9oVod #bitcoin
775747236567232512,2016-09-13 17:25:28,Billioniare Paul Singer warns of the 'biggest bubble in the world' https://t.co/TbeBjsJBlP via @YahooFinance
775546035972091904,2016-09-13 04:05:58,"If buyers had to hold 30 year treasuries for 30 years, there would be no buyers."
775544605534105600,2016-09-13 04:00:17,"@davidjnixon It has traditionally been about 2/3 english talks, 1/3 spanish. Translator headsets available."
775532932056219648,2016-09-13 03:13:54,"RT @BitcoinBender: Bitcoin via iMessage is here!
üí∑üí∂üíµüôåüôåüôåüéâüéâüéâüòÅüòÅüòÅ https://t.co/MQD12t3YlR"
775411610215034880,2016-09-12 19:11:48,RT @YourAnonNews: Who is worse?
775378702934736896,2016-09-12 17:01:03,I'll be there! https://t.co/c8sqK7rADR
775377991966740481,2016-09-12 16:58:13,RT @neha: I gave a TED talk about cryptocurrencies and it's the featured talk on https://t.co/ZKKagdXCPx today! https://t.co/zthH0B8kRj
775358698143096832,2016-09-12 15:41:33,"@JasonCatalyst I'm happy to let you live whatever life you want, I just wish you didn't resort to coercion."
775357812637519872,2016-09-12 15:38:02,"Also, the Galaxy S7 is a pretty nice phone... https://t.co/rZdTACguJA"
775353594136539136,2016-09-12 15:21:16,Silicon Angle: Apple removes exchange app ShapeShift from the App Store https://t.co/LEv6Fa76wL via @siliconangle #blockchain #bitcoin
775175106972700673,2016-09-12 03:32:02,"@JasonCatalyst Please dont include me in your ""we."" I had no part in ""voting"" for any such theft, and I dont wish to participate."
774662403128594432,2016-09-10 17:34:44,Inside the Zcash Audit: Why the Anonymous Blockchain Project Spent $250k on a Trial By Fire https://t.co/TKTcZfnsXk via @CoinDesk
774642489005182976,2016-09-10 16:15:36,XAPO Enables Bitcoin Purchases In Venezuela https://t.co/eX2ThdDOxn via @themerklenews
774387084169662468,2016-09-09 23:20:42,Notable Leaders Calling on CPD to #LetGaryDebate https://t.co/ZVIdDRslfz via @GovGaryJohnson #election2016
773989542978211840,2016-09-08 21:01:01,ShapeShift vid in French- Comment faire un bitcoin et des √©changes d‚Äôactifs num√©riques ‚ÄúPr√©cis‚Äù su... https://t.co/g5QRLxjRXj @shapeshift_io
773986347476328448,2016-09-08 20:48:19,Big news from Dutch bank ABN AMRO #bitcoin https://t.co/RbVzLW1nnQ
773983995839209472,2016-09-08 20:38:59,"@zooko @bitwala Psshhhh we do that, every tx in published on the homepage and API, as well as volume and tx count."
773962152260476929,2016-09-08 19:12:11,@cryptocoinage That's a much better way to say it :)
773940939303759872,2016-09-08 17:47:53,"@bhec39 Volumes are up 50x YoY so there isn't really much reason to be defensive... ultimately the scoreboard, the market, will judge."
773922618135064576,2016-09-08 16:35:05,"Those who say a thing is ""useless"" set themselves up for discredit, for it takes but one genuine drop of utility to falsify the statment."
773920276161495041,2016-09-08 16:25:47,"@OptimistLib It absolutely makes sense for Tether to exist, but not for Bitcoin to attempt the same. They are complimentary assets."
773919719262867457,2016-09-08 16:23:34,"@OptimistLib No? How about Tether? Stable USD asset on a blockchain. Bitcoin cannot, and should not, even attempt to be such a thing."
773915806350487553,2016-09-08 16:08:01,@OptimistLib I wonder if you apply that same accusation to the maximalists?
773915344628912128,2016-09-08 16:06:11,@anondran @__Wintermute_ @bitwala I don't disagree at all with that
773914546431860736,2016-09-08 16:03:01,"@anondran @__Wintermute_ @bitwala The point is competition/innovation. Most will fail, some will rise as great successes."
773913720405696512,2016-09-08 15:59:44,"@MrHodl @bitwala @__Wintermute_ All those coins I mentioned have value beyond just ""speculation."" Would need more chars to explain properly."
773913466344058880,2016-09-08 15:58:43,.@__Wintermute_ @bitwala Absolutely most alts are dumb. So were most websites in the 90's.
773913304817205253,2016-09-08 15:58:05,.@MrHodl @bitwala @__Wintermute_ As a followup to previous tweet... I've always said most alts are stupid/pointless. But most =/= all.
773911945170653186,2016-09-08 15:52:40,".@MrHodl @bitwala @__Wintermute_ Sure... ETH, XMR/DASH/ZCASH, BCY, FCT, DGD, MAID/SJCX/LBRY, OMNI/XCP, REP, CLAM, USDT to name a few."
773907290869030913,2016-09-08 15:34:11,@bitwala @__Wintermute_ Sure... any commodity *can* be used for payments.
773905049315450880,2016-09-08 15:25:16,"@bitwala @__Wintermute_ Sure... but ""can be used as payment"" doesn't imply that it commonly will, yet it may be valuable for other purposes."
773892906310434818,2016-09-08 14:37:01,"@__Wintermute_ @bitwala Ehhh well... a chain can carry value, without being used as a narrow means of common payment."
773889708237606916,2016-09-08 14:24:19,.@bitwala You're making the mistake of assuming all blockchain assets are meant to be (or useful as) means of payment.
773606442892824576,2016-09-07 19:38:43,@DarthCrypto_BTC @malimujo @aantonop @joerogan I think it was Darth Vitiate who doesn't like the app. #whatev #WhoNeedsHimAnyway
773605671967207424,2016-09-07 19:35:39,"Congrats LBRY! If anyone wants to easily buy or sell LBRY credits, it's been added to @ShapeShift_io #blockchain https://t.co/RvgcMLscta"
773578521381707777,2016-09-07 17:47:46,Jaxx + ShapeShift is preferred by 9 out of 10 Sith Lords. https://t.co/fqucYTH4E9
773530809642782720,2016-09-07 14:38:11,"RT @HBadger2009: @ErikVoorhees @reason
Cash is only ~3% of money supply. Apparently our overseers feel 3% financial privacy is still too mu‚Ä¶"
773332141669224448,2016-09-07 01:28:45,RT @thesocialwallet: President of @_CFour_ Michael Perkin tests the new #btm at the Deloitte Toronto office #bitcoin #BTC #changetheworld h‚Ä¶
773250577807527936,2016-09-06 20:04:38,When You Change the World and No One Notices https://t.co/ndj8OsC1Am via @collabfund
773186377483554816,2016-09-06 15:49:32,"Cash Means Freedom, Which Is Why So Many Officials Hate It https://t.co/SbjrRZWa9a"
773181308243619840,2016-09-06 15:29:23,It's the best https://t.co/Tpt11rE7tV
772851940363423744,2016-09-05 17:40:36,"We Should Stop Calling ""Liberals"" Liberals https://t.co/OixkdODMpI"
772833447735808001,2016-09-05 16:27:07,RT @ShapeShift_io: Amazon-Owned Twitch Re-adds Bitcoin Payments Using Coinbase https://t.co/GLVm7yR2HC
772833180239790081,2016-09-05 16:26:03,Great article on the growing Bitcoin industry in China https://t.co/gqqwpgBxgx #finance #fintech #blockchain
772185539462127617,2016-09-03 21:32:33,.@libertyepodcast @ShapeShift_io Ask and ye shall receive: ShapeShift wordpress integration https://t.co/tmdIkDDlMw
771948675211952128,2016-09-03 05:51:20,Expecto patronum! https://t.co/fPJp63fbD6
771779160578465792,2016-09-02 18:37:45,"@bedehomender I agree somewhat... in theory if a resource was free forever in predictable supply, that wouldnt be bad."
771778195867566080,2016-09-02 18:33:55,RT @CoinCap_io: Check out our new iPad app! Create custom dashboards to watch your favorite digital assets: https://t.co/F82TXQkxZM https:/‚Ä¶
771774498949345284,2016-09-02 18:19:14,‚ÄúOn Tokens and Crowdsales‚Äù by @demibrener https://t.co/oPARxM5N1E
771770130653073408,2016-09-02 18:01:52,Ad-Blocking Browser Brave Launches Bitcoin Micropayments https://t.co/YTifZRHaDL via @CoinDesk
771582447163088896,2016-09-02 05:36:05,‚ÄúHow Digital Currency Will Change The World‚Äù by @brian_armstrong https://t.co/O2e1I1ZIrL #bitcoin #ethereum
771580226396524544,2016-09-02 05:27:15,"Good documentary: Poverty, Inc. https://t.co/lYvGzq0iNL"
771358769099878400,2016-09-01 14:47:16,European Ruling against Apple and Ireland Vindicates #Brexit | Dan Sanchez https://t.co/toNMiLy9KJ via @feeonline
771345382441750528,2016-09-01 13:54:04,@odoudin @TheNationalUAE Nice job!
771199085495758850,2016-09-01 04:12:44,"@iA_Chris @ShapeShift_io @openbazaar Indeed they are... as are the spirits of the companies, I think"
771028172062072832,2016-08-31 16:53:35,RT @ShapeShift_io: .@moneytrigz @ErikVoorhees Here is the gif! Enjoy! https://t.co/p5nHUqCXNN
771027925005053952,2016-08-31 16:52:36,Beautiful new real-time asset dashboard on CoinCap app for iPad.... try it out! https://t.co/pyPPT7wR0O https://t.co/gPFY3nkTaM
771015398024056833,2016-08-31 16:02:50,RT @ETHNews_: @jaxx_io users will soon be able to split #ETH and access/sell #ETC via @ShapeShift_io https://t.co/2STmX3foOI #Jaxx #Shapesh‚Ä¶
770986575953928192,2016-08-31 14:08:18,‚ÄúHardware Oracles: bridging the Real World to the Blockchain‚Äù by @LedgerHQ https://t.co/K5AS9lehDi
770807929754705920,2016-08-31 02:18:26,@BlueMeanie4 @St011M1 That you would cite Heinlein to defend statism is pretty ironic...
770807675210694657,2016-08-31 02:17:25,"@BlueMeanie4 @St011M1 I'm happy to pay for services I want and use, but taking half my income every year by force regardless of use? No."
770800558277996544,2016-08-31 01:49:08,@BlueMeanie4 @St011M1 Obligations require former consent on the terms of the obligation. You cant just claim somebody owes you stuff.
770800093192519681,2016-08-31 01:47:17,@EdgarAllenPurr @Steven_McKie DM me with address and size
770797617663967237,2016-08-31 01:37:27,@St011M1 Sounds like something a looter would say
770797445664026624,2016-08-31 01:36:46,"@markhughes @kristovatlas Yes, the gang of individuals using force to take property from other are the thieves."
770797064988962817,2016-08-31 01:35:15,@coolbearcjs DM me an address and size!
770771392329490432,2016-08-30 23:53:14,Such bullshit. https://t.co/6K1whjBsQK
770735656049872896,2016-08-30 21:31:14,@thechaz That's a fascinating philosophical question for sure... but I suggest it is not established by taking coercively from others.
770735402848096256,2016-08-30 21:30:14,"@Harrydevree That was the law in Ireland. Now the EU is taking, retroactively, billions of dollars of Apple's rightful property."
770735096751988736,2016-08-30 21:29:01,@skeabrae Looters always feel justified in their taking.
770734915574915072,2016-08-30 21:28:18,".@St011M1 Theft means taking something that does not belong to you. Profits are Apple's, and every dollar taken from them by force is theft."
770729777883865088,2016-08-30 21:07:53,"The EU's attempted theft of billions of dollars from Apple in Ireland is further evidence that #Brexit, and all secession, is noble."
770729003434979329,2016-08-30 21:04:48,ShapeShift PHP library by @Achse_ #bitcoin #ethereum #monero #litecoin #blockchain https://t.co/yC3dBN6Pkr
770725266901524480,2016-08-30 20:49:57,RT @taariqlewis: Another big winner in the coming #altcoin bloom will be @ShapeShift_io #exchange. Very smart business model with 20/20 hin‚Ä¶
770720735769735168,2016-08-30 20:31:57,"NASDAQ - Zcash Creator on the Upcoming Zcash Launch, Privacy and the Unfinished Internet Revolution https://t.co/Rb4pljT6hm #blockchain"
770674027828432897,2016-08-30 17:26:21,@Achse_ @ShapeShift_io What's the link?
770443799302516737,2016-08-30 02:11:30,.@libertyepodcast @ShapeShift_io Nope just demonstrates a broadening of the industry. Blockchain assets are not mutually exclusive #bitcoin
770391541269471232,2016-08-29 22:43:51,"@coinberg @ShapeShift_io All txs running through ShapeShift can be viewed on the API, so yes!"
770378812538224640,2016-08-29 21:53:16,@wonkytonky2 @ShapeShift_io That's not the indication at all... the indication is that the industry is getting more diverse/dynamic.
770373513685241856,2016-08-29 21:32:13,"@OccamsEdge @ShapeShift_io A significant amount, to be sure, but even without that, alt to alt grew 2-3x in proportion"
770372065899581440,2016-08-29 21:26:27,"RT @Melt_Dem: hey crypto peeps, if you're excited about @zcashco - this is where all the cool kids are hanging out

https://t.co/zsxkRT72tm"
770371924488622080,2016-08-29 21:25:54,"The % of @ShapeShift_io txs that are ""alt to alt"" (as opposed to BTC&lt;&gt;ALT) has gone from ~1-2% to ~5-15% over the past six months. #bitcoin"
770338955459825664,2016-08-29 19:14:53,"@slurbs_ @ShapeShift_io Yep, see the ""Support"" menu item in top right of the website."
770279510012899328,2016-08-29 15:18:40,RT @jaxx_io: Our CEO @diiorioanthony on @thebtcpodcast talking abt Jaxx &amp; easy to use @ShapeShift_io integrated into our app: https://t.co/‚Ä¶
770124135510999041,2016-08-29 05:01:16,"More resources are produced, than consumed, by man, and not one person in a thousand realizes it."
770123321979592704,2016-08-29 04:58:02,RT @whoismrrobot: Credit is gone. Cash is disappearing. Evil Corp is owning the nation's currency. #MrRobot https://t.co/qNcjRrLOoy
769621772886945792,2016-08-27 19:45:04,The Greatest Thinker You've Never Read: Ludwig von Mises via @forbes https://t.co/P95VQcle41
769589677519085568,2016-08-27 17:37:32,@cryptocoinrun done
769566986640556032,2016-08-27 16:07:22,‚ÄúWhy Blockchain Game Items do NOT need to fill up blocks‚Äù by Christian Moss https://t.co/5qPaQn5FnC #Bitcoin
769402945699840000,2016-08-27 05:15:31,"@diiorioanthony @TaylorGerring @yamarnez @ShapeShift_io @jaxx_io They should do whatever makes their product better and more useful, no?"
769305085314641920,2016-08-26 22:46:39,Bitcoin special on Bloomberg North August 22 2016 Part1 https://t.co/mc6a2mTyxk #finance
769199207924105218,2016-08-26 15:45:56,Why I Left Canada and Became A Citizen of the Dominican Republic ‚Äî Steemit https://t.co/9T19irbbvm
769168651572293632,2016-08-26 13:44:31,"RT @ShapeShift_io: üì∏ ShapeShift 101: How to do ""Precise"" order on ShapeShift.io [PHOTOS] https://t.co/AyOTYGksHr"
769018382024925185,2016-08-26 03:47:24,@HapyFamilyDad What does Bitcoin have to do with my tweet?
768915961004957696,2016-08-25 21:00:25,"Did you know you can buy anything on Amazon with any leading cryptocurrency? With ShapeShift + Purse, you can! https://t.co/QLbdmfGann"
768670379363606529,2016-08-25 04:44:34,Liberty and Property | Ludwig von Mises https://t.co/Gd94bJLWXO via @feeonline
768609465876697088,2016-08-25 00:42:31,"@cane_jean @LilButerin @ShapeShift_io The humble, unassuming ShapeShift t-shirt is by far our greatest contribution to mankind."
768608049011433472,2016-08-25 00:36:53,Blockchain-based fiat that is censored/controlled by central parties misses the point entirely...  https://t.co/QeVjMtEy3X via @FT #bitcoin
768603887246860288,2016-08-25 00:20:21,"@LilButerin @cane_jean @ShapeShift_io Not true, if you want one let me know (send address in DM)"
768571977959288833,2016-08-24 22:13:33,‚ÄúOn Tokens and Crowdsales‚Äù by @demibrener https://t.co/jjQ0Gw3Wd8 #bitcoin #ethereum @shapeshift_io
768550105804705792,2016-08-24 20:46:38,"Thanks for the shout out! For algos, ShapeShift API is here: https://t.co/FgB9Br4iah https://t.co/ll8kXx7XMY"
768526825500794880,2016-08-24 19:14:08,@scarrbondale thats not yet an explicit program... but yeah :/
768521298553155584,2016-08-24 18:52:10,"@abrkn Works only on desktop I think, sorry!"
768521244366864384,2016-08-24 18:51:57,"@AndrewHires That makes it look less scary, indeed, but combined with ZIRP I can only conclude downside risk is intense."
768520189361082369,2016-08-24 18:47:46,"The US Gov will win the war on terror... just like it won the war on drugs, the war on poverty, and the war on obesity."
768520159711547392,2016-08-24 18:47:39,"RT @ScrewedbyState: ""I believe that it is better to be free than to be not free, even when the former is dangerous and the latter safe."" ht‚Ä¶"
768515096939147264,2016-08-24 18:27:32,"RT @cgledhill: Front page of the @ft today! üì∞
#fintech #blockchain https://t.co/GvP44jj9IZ"
768510832850247681,2016-08-24 18:10:35,How can anyone feel good about this... https://t.co/2KykIrYu5u #finance #sp500 #endthefed
768483954961752068,2016-08-24 16:23:47,Thank you sir! https://t.co/RLgxtu8GGI
768483446482046976,2016-08-24 16:21:46,RT @CoinCap_io: üì∞ Extra! Extra! Read all about it! CoinCap Releases Industry News Service: https://t.co/mPiX9Dp9M4 #CCNews
768448454066524160,2016-08-24 14:02:43,"@ThirdCoalition @ertuque I dont know, Id love to get more data. Im sure it is still small, but the trend is clear."
768447395516387328,2016-08-24 13:58:30,"@AaryamanVir @BlueMeanie4 Yes, and like most well-intentioned gov diktats, it ends up hurting people and institutionalizing inequality"
768319989510082560,2016-08-24 05:32:14,@cukeking @BlueMeanie4 Well... im not surprised you collectivize people and treat them all according to the lowest common denominator.
768318694946516992,2016-08-24 05:27:06,@cukeking @BlueMeanie4 You're welcome to be anonymous. But it's a little typical and cliche to hurl insults as an anonymous  twitter account
768314783984594945,2016-08-24 05:11:33,@BlueMeanie4 @igorsyl probably the casino
768314719107026944,2016-08-24 05:11:18,@cukeking @BlueMeanie4 1 part snark + 1 part teenage angst + 2 parts anonymous web identity = every troll online
768314201957818368,2016-08-24 05:09:14,"@BlueMeanie4 @igorsyl Laws should apply equally... no theft, no fraud, no coercion. Should apply equally to people with government costumes."
768311544962617344,2016-08-24 04:58:41,@BlueMeanie4 @igorsyl Thanks for the pic... for that's the best example of the importance of the argument.
768311305077821440,2016-08-24 04:57:44,@cukeking that bad people exist shouldnt shackle those who arent. Gov should not prevent the good from dealing with the good.
768309636327813120,2016-08-24 04:51:06,".@igorsyl How about just a ""man should be free"" argument? That used to carry weight in this country."
768309350708355072,2016-08-24 04:49:58,@cukeking Nobody is advocating that fraud be legal. Do you get wholesale pricing on your straw?
768307350411194369,2016-08-24 04:42:01,".@BlueMeanie4 They dont need to raise any more funds, they can just ask the Saudi's, who in turn ask the US Gov"
768306282373623809,2016-08-24 04:37:46,"Land of the Free: In soviet America, only the rich are allowed to invest in new ventures. The euphemism is, ""accredited investors"" #SEC"
768221732960284673,2016-08-23 23:01:48,Was the Launch of Steem a Scam or the Only Legal Way? - Thoughts on Steem by Charlie Shrem a Week Later ‚Äî Steemit https://t.co/sP7rmAmM3x
768215621007847425,2016-08-23 22:37:31,"@GabrielDVine Maybe the Church is free-market money broadly, not Bitcoin specifically."
768214776937930752,2016-08-23 22:34:10,Warms my heart.... https://t.co/mNAuT42xzE #bitcoin #Venezuela #Bolivar
768150078817046529,2016-08-23 18:17:04,‚ÄúGDAX adds Litecoin Trading‚Äù by @WhiteAdamL https://t.co/kcTZkORyY2
768128163356352512,2016-08-23 16:49:59,Why Bitcoin Is Essential To Abra's Global Payments App (And What It Does) https://t.co/befM1KV0X9 via @BitcoinMagazine @Nasdaq
768097370244419584,2016-08-23 14:47:38,"@BJTortorich @bitcoinkeepkey @ShapeShift_io Sorry I misspoke. It is in beta, but you can use by downloading the beta KeepKey software"
768097001623859200,2016-08-23 14:46:10,@BJTortorich @bitcoinkeepkey @ShapeShift_io It is now available on any KeepKey
768095822445555712,2016-08-23 14:41:29,This is now a thing - Digital asset exchange via hardware wallet  https://t.co/pfrrIg8oDV  #bitcoin @bitcoinkeepkey @ShapeShift_io
766849872599265280,2016-08-20 04:10:31,@propelforward @Itsjoeco Market incentives (ie competition) do a better job improving quality than diktats of politicians.
766795624381419520,2016-08-20 00:34:57,@propelforward Why would you buy polonium toothpaste?
766795204368080896,2016-08-20 00:33:17,RT @ShapeShift_io: UPDATE: The ShapeShift Ethereum Splitter is back up and running: https://t.co/dPr6NoqUMI
766734282446348288,2016-08-19 20:31:12,"@krilli0naire @Awyee707 @mrjonesza @alejand06640904 @bitfinex It's fine to be upset at the hack, but comparison to taxation is wrong."
766733946151239680,2016-08-19 20:29:52,He who worships at the altar of state is no less delusional than the devout Catholic or Muslim. Authority is surrendered to the sky.
766717255560335365,2016-08-19 19:23:33,"@krilli0naire @Awyee707 @mrjonesza @alejand06640904 @bitfinex It's arguable either way - hacker stole only BTC, but stole BFX assets."
766711626548453376,2016-08-19 19:01:11,"@krilli0naire @Awyee707 @mrjonesza @alejand06640904 @bitfinex didn't ""distribute wealth"" They were robbed, and decided how best to handle."
766711475486334976,2016-08-19 19:00:35,@ptibbits1 @balajis The turmoil and displacement is temporary. The wealth and prosperity is permanent.
766711081750269952,2016-08-19 18:59:01,"@riprowan @balajis Where do you think jobs come from? They are created by man's unending desire for more things, experiences, etc."
766498091348336645,2016-08-19 04:52:40,@Zichivhu @balajis Why now? Automation has been happening at a rapid pace for two centuries.
766465157887168512,2016-08-19 02:41:48,@BTCVIX one step at a time ;)
766360011337371649,2016-08-18 19:43:59,"It happened on the farm... 95% of humanity's jobs were destroyed. And yet, somehow, we are now vastly wealthier. https://t.co/YWGS5sovCO"
766359249760903168,2016-08-18 19:40:58,@brucefenton @wef @BjornLomborg That's really shitty :/
766317701488742400,2016-08-18 16:55:52,"@islandrhythmz If I steal your wallet and then buy you a cookie, is that different?"
766317167360880640,2016-08-18 16:53:44,"@islandrhythmz Lets start by reducing the size of government... even marginally. Unfortunately, even this is extreme and scary to people."
766316543042957313,2016-08-18 16:51:15,"@krilli0naire @Awyee707 @mrjonesza @alejand06640904 @bitfinex Taxation is theft, and the hack is theft."
766139506978283524,2016-08-18 05:07:47,"@77wHan @bitfinex I do have a vested interest. I want my money back after the hack, and witch hunting them is unlikely to yield value."
766117721192865794,2016-08-18 03:41:13,@ThisIsNuse @77wHan @bitfinex Yes its possible. I agree it is risky and deserves some attention. Moral hazard should he avoided.
766117478002860033,2016-08-18 03:40:15,@77wHan @bitfinex Im always happy to hear and judge evidence. But im tired of baseless rumor and witch hunts.
766117295877787648,2016-08-18 03:39:31,"@baijorge I understand, but why are you lumping BFX in with scammers? Yelling scam at everything makes it harder to decipher the real ones."
766085644888121344,2016-08-18 01:33:45,@77wHan @bitfinex Lots of assumptions coming from your corner.
766075811220770816,2016-08-18 00:54:41,@77wHan @bitfinex Where is the evidence of trading on internal data? Youre just spreading nonsense and FUD.
766059046533115904,2016-08-17 23:48:04,@CVPITVLIST That's not how evidence works. Cant prove a negative.
766048289225486337,2016-08-17 23:05:19,California doesn't want to make the same mistake as New York. California ‚ÄòBitLicense‚Äô Dropped https://t.co/qe0eQySHk9 #bitcoin #finance
766031477846839296,2016-08-17 21:58:31,Election 2016: Liberty Loses No Matter Who Wins | Mises Wire https://t.co/EnORQZDNkq
766030326992809984,2016-08-17 21:53:56,"@BTCVIX @MAbtc No, can't listen now, have it in a tab for later."
766029811852595200,2016-08-17 21:51:53,"@MrHodl @MAbtc @whalepool Okay... well certainly there is potential for abuse, but I'm not seeing evidence of abuse."
766029627005411328,2016-08-17 21:51:09,ShapeShift Transforms KeepKey Hardware Wallet into an Exchange https://t.co/3aUsVZyYu4 @shapeshift_io #bitcoin #litecoin #dogecoin
766026945167433728,2016-08-17 21:40:30,@MrHodl @MAbtc @whalepool Trading on his exchange is different than trading with privileged information. Is it the former or latter?
766026773565890561,2016-08-17 21:39:49,@nwoodfine I don't disagree.
766026696428441600,2016-08-17 21:39:31,@MAbtc @kazonomics @bitfinex I agree they should be sending emails of the announcements.
766024829833125890,2016-08-17 21:32:06,@nwoodfine Maybe? I don't really think it's a big deal as long as employees don't get advantageous info.
766024621581672448,2016-08-17 21:31:16,@MAbtc @Technom4ge @kazonomics @bitfinex Source? And is he trading with privileged info or not?
766024406791442432,2016-08-17 21:30:25,@MAbtc @kazonomics @bitfinex It's easy to always want more comms. I'd give BFX a C+ for comms thus far.
766024142164402176,2016-08-17 21:29:22,@BitcoinHawker @kazonomics @bitfinex How is that relevant? That law enforcement is often bad at justice is not crypto's problem.
766018810306371588,2016-08-17 21:08:10,@MAbtc @Technom4ge @kazonomics @bitfinex Yes and the illuminati is suspected of controlling the world.
766018572258652160,2016-08-17 21:07:14,@BitcoinHawker @kazonomics @bitfinex That's not true at all. Theft and fraud is always illegal and wrong. Crypto doesn't change that.
766016314494193665,2016-08-17 20:58:15,@BitcoinHawker @kazonomics @bitfinex What is that and what is relevance of that to BFX staff?
766016156738002944,2016-08-17 20:57:38,@MAbtc @Technom4ge @kazonomics @bitfinex Then that would be a story and very controversial. Any evidence of that?
766015989477552129,2016-08-17 20:56:58,@BitcoinPaul @chequeyoxbt @kazonomics @bitfinex Yes
766015114432524288,2016-08-17 20:53:29,@BitcoinHawker @kazonomics @bitfinex Please provide evidence of wrongdoing or stop crying wolf.
766014699334832129,2016-08-17 20:51:50,@CVPITVLIST Do you have evidence they are trading on non-public data?
766014551351406592,2016-08-17 20:51:15,@baijorge So... not everything is going perfectly at Bitfinex? I know that. What is your point and why are you on this crusade?
766011435864297472,2016-08-17 20:38:52,@chequeyoxbt @kazonomics @bitfinex LOL if they didn't hold balances and suffer the 36% loss you'd also say they have conflict of interest.
766011235309543424,2016-08-17 20:38:04,@baijorge @SimonDixonTwitt @kazonomics So you won't answer my question? Just make more trollish inferences?
766010597750157312,2016-08-17 20:35:32,RT @ShapeShift_io: OFFICIAL ANNOUNCEMENT: ShapeShift has added #Steem to the exchange! Buy/sell steem instantly. No account needed: https:/‚Ä¶
766008316325564417,2016-08-17 20:26:29,@baijorge @bitfinex What's wrong with BFX staff using their own platform? You are but an infinite spigot of drama!
766008112767639552,2016-08-17 20:25:40,.@kazonomics @bitfinex Wow people cause drama about everything. Nothing wrong with BFX staff having BFX accounts. Itd be wierd if they didnt
766007419201728512,2016-08-17 20:22:55,RT @NeerajKA: Notice anything about these payments to the #shadowbrokers auction address? https://t.co/WIOW3bYxBo https://t.co/GuohODJWCx
765959797539692544,2016-08-17 17:13:41,ShapeShift Exchange Integrates Bitcoin Hardware Wallet KeepKey https://t.co/0z8fduKCqb
765945567088304128,2016-08-17 16:17:08,@309blank @TheLejait @Noahpinion Asymmetric information is everywhere... that's why government is incapable of managing economic relations.
765945479091761152,2016-08-17 16:16:47,"@309blank @TheLejait @Noahpinion Nobody is crammed into factories against their will. If you don't want to work for a company, then quit."
765945376025161728,2016-08-17 16:16:22,@309blank @TheLejait @Noahpinion Nice myth. Businesses have far more incentive not to poison people than bureaucrats do.
765945100002144256,2016-08-17 16:15:17,@St011M1 It really doesn't depend on who you vote for. #NobodyForPresident
765935781613543424,2016-08-17 15:38:15,KeepKey Is The World‚Äôs First Hardware Cryptocurrency Wallet To Integrate Shapeshift.io https://t.co/vyKwS5i50N @shapeshift_io #bitcoin
765787394427785216,2016-08-17 05:48:37,"@TheLejait @Noahpinion Just like rich people dont make food, clothes, cars, and electronics for poor people either!"
765787062041796608,2016-08-17 05:47:17,".@Noahpinion There are no anti-infrastructure libertarians. Amazingly, they believe concrete can be built without an overlord demanding it."
765786227131944960,2016-08-17 05:43:58,"@KimDotcom ...because all gov programs are given more powers when they fail, no?"
765781609551372288,2016-08-17 05:25:37,"@pkothbauer A fork creates two of the item (sort of). If one then fails, problem solved."
765757096776364034,2016-08-17 03:48:13,RT @JanusCapital: Gross: Global yields lowest in 500 years of recorded history. $10 trillion of neg. rate bonds. This is a supernova that w‚Ä¶
765707649648173056,2016-08-17 00:31:44,".@hitchslappy wealth should be no more ""distributed"" than women. That is to say, neither should be up for distribution by a government."
765706623687938048,2016-08-17 00:27:39,@taariqlewis @cryptolachat My point is that nothing the federal government does is needed.
765690742975057920,2016-08-16 23:24:33,All major languages now available on https://t.co/2JZAgbYOvz Real time price and market data for #bitcoin and all #blockchain assets.
765690175355707392,2016-08-16 23:22:18,"@cryptolachat It's not a technicality... states take single digits, fed takes 30-50%. Yet law enforcement is state/local, not Fed."
765689922703405056,2016-08-16 23:21:18,@mrjonesza @Awyee707 @alejand06640904 Police are a program of local law enforcement. Why is there a Federal Government?
765689796802912256,2016-08-16 23:20:48,"@hitchslappy There are examples of nations with both high and low taxes with great standards of living. See Singapore, Dubai, Ireland"
765645818992799744,2016-08-16 20:26:02,@Awyee707 @mrjonesza @alejand06640904 Indeed there is no better real world example of Stockholme Syndrome than taxation. Vicitms all defend.
765645284592320513,2016-08-16 20:23:55,@a98718 @mrjonesza Individual choice is at the heart of crypto. That bothers some people who seek control and coercion.
765644786225209344,2016-08-16 20:21:56,@hitchslappy I suppose it would outrage anyone who benefits from the theft.
765644529735077888,2016-08-16 20:20:55,"@cryptolachat Even if I bought that argument, why is the Federal Government needed?"
765644108547235840,2016-08-16 20:19:15,@mrjonesza @alejand06640904 Steal from society? Thats what Im upset about. Nobody should steal from society. Leave people alone.
765605176786857985,2016-08-16 17:44:33,@mrjonesza I'm alive because of government? I thought I was alive because my parents got freaky.
765604918006718464,2016-08-16 17:43:31,@cryptolachat Justice is absolutely worth every penny. Show me where government has provided it.
765604730714202112,2016-08-16 17:42:46,.@flowolf I'd prefer straight robbery. Then my stolen funds wouldn't be spent subsequently murdering brown people in far off lands.
765604508533567488,2016-08-16 17:41:53,@Yingsena The fox is clever and independent... and adorable. Oragami represents the concept: changing shape.
765604172481703936,2016-08-16 17:40:33,"@hitchslappy Let's avoid extreme case of zero tax and zero gov, for now. First, consider 0% corp tax would only shrink US gov to 2007 level."
765603288754429952,2016-08-16 17:37:02,.@mrjonesza I would never tell you that you must not pay taxes. Please extend me the same respect and don't tell me that I must.
765602681595408384,2016-08-16 17:34:38,RT @lucasmzanella: Just shifted some @bitcoin to @Dashpay through @ShapeShift_io using @jaxx_io :) https://t.co/mo4K9LPrmx
765601184375828480,2016-08-16 17:28:41,"Blockchains give ""rare items"" real scarcity. Spells of Genesis SatoshiCard Sells For US$3,700 https://t.co/BJjG1mFjWD #bitcoin #blockchain"
765404803031642112,2016-08-16 04:28:20,"If a man robbed you of a year's salary, you'd seek vengeance. Yet you're robbed of half that amount every single year, and you do nothing."
765369375457107968,2016-08-16 02:07:33,"RT @feeonline: Hayek's ""Road to Serfdom"" was intended as a warning. Unfortunately, Venezuela seems to be using it as a checklist. https://t‚Ä¶"
765310010708459521,2016-08-15 22:11:39,RT @ShapeShift_io: PLEASE NOTE! Our twitter account is now a verified account. This is to help with any scam issues. Please always make not‚Ä¶
764518047285547008,2016-08-13 17:44:41,"@HapyFamilyDad Not true at all, but feel free to suggest better alternative given BFX situation"
764517673354993665,2016-08-13 17:43:12,"@MikeCautillo Hehe well there is zero information on such things, so good luck! :)"
764479253261881344,2016-08-13 15:10:31,It warms my heart that this spirit is still alive in America. May there be more of it. https://t.co/bIPbyKuPXQ via @TheEconomist #liberty
764474054271119360,2016-08-13 14:49:52,@dirkhoving not sure what you mean? We dont block anyone from following.
764473839648595968,2016-08-13 14:49:01,Appeals Court Says It's Perfectly Fine For The DOJ To Steal Kim Dotcom's Money Before Any Trial https://t.co/pBk9aARLRx via @Techdirt #USSA
764332152930508800,2016-08-13 05:26:00,"@mwilcox @prestonjbyrne @NelsonMRosario @balajis @reddit They have done bad job communicating, but yes I think so."
764332003890126852,2016-08-13 05:25:24,"@prestonjbyrne @a98718 @triptananda @NelsonMRosario @balajis Law and order is best found through markets. State, coercion, monopoly = chaos"
764331281517678592,2016-08-13 05:22:32,@mwilcox @prestonjbyrne @NelsonMRosario @balajis Ummm they have. Them as individuals and company reserves. Why do you suggest otherwise?
764330223898808320,2016-08-13 05:18:20,"@prestonjbyrne @a98718 @triptananda @NelsonMRosario @balajis We both agree the fraud needs to stop. You prefer monopoly state, I prefer mkt"
764330009808900096,2016-08-13 05:17:29,@prestonjbyrne @triptananda @NelsonMRosario @balajis That type of behavior from government is exactly what drives some people into Bitcoin.
764329667574632448,2016-08-13 05:16:07,"@prestonjbyrne @mwilcox @NelsonMRosario @balajis Im interested in helping victims, not filing permission slips with corrupt States."
764329250660847616,2016-08-13 05:14:28,@defunctzombie I mean... im one of those people. Im telling you my opinion as one of the victims.
764306457290416131,2016-08-13 03:43:54,".@mwilcox @prestonjbyrne @triptananda @NelsonMRosario @balajis Very little done in crypto is ""by the book."" Thats the point."
764306229111861249,2016-08-13 03:42:59,All the cynics yelling at Bitfinex have provided precisely zero better alternatives. BFX's plan is only horrible when compared to perfection
764305970763665408,2016-08-13 03:41:58,"@mwilcox @prestonjbyrne @triptananda @NelsonMRosario @balajis If by ""cover it up"" you mean keep working to make creditors whole, then yes."
764305149636452352,2016-08-13 03:38:42,"@prestonjbyrne @triptananda @NelsonMRosario @balajis If you wanna send money, go down to Western Union! They're regulated and safe."
764304848170815489,2016-08-13 03:37:30,@prestonjbyrne @triptananda @NelsonMRosario @balajis Im certainly not suggesting situation is riskless. But IMO beats Gox situation handily.
764303143383334912,2016-08-13 03:30:44,"@NelsonMRosario @prestonjbyrne @balajis In that case BFX Coin is ""priced correctly"" and BFX really did just save $20m for customers."
764302074859311104,2016-08-13 03:26:29,"@prestonjbyrne @wordpressdotcom Is the concept of ""cryptocurrency"" likewise BS? It's a currency, done properly, or it isnt."
764301684671598594,2016-08-13 03:24:56,@prestonjbyrne @balajis Then short it.
764291605511573505,2016-08-13 02:44:53,"RT @jerrybrito: Happy to say that AB 1326, CA‚Äôs bad digital currency bill, has been dropped by the sponsor and will no longer be pursued th‚Ä¶"
764206855648190464,2016-08-12 21:08:07,RT @BlueDavid: Future of Finance is already here! https://t.co/n4EKo3GYhi
764206278084145152,2016-08-12 21:05:49,"Has there ever been a trend so easily forecastable, and with such an easy way to opt out of the damage? https://t.co/FgYjaIfWsl"
764179196373405696,2016-08-12 19:18:12,"Overheard today... ""If Abraham Lincoln saw the state of today's Republican Party, he would have shot himself."" Bwahahaha"
764122635907104769,2016-08-12 15:33:27,The Future will be Tokenized... IndieSquare and EverdreamSoft jointly develop blockchain game platform https://t.co/Uj2EeGqc9g #bitcoin
764120830183772162,2016-08-12 15:26:17,"Guy gives clever and creative gift to his niece: God, Gold, Silver and Bitcoin https://t.co/mdoC9Htyvr"
763978488994865152,2016-08-12 06:00:40,@defunctzombie @brian_armstrong Formal legal proceeding has commenced with Gox. I havent seen a dime. Over $5m spent on lawyers.
763971397374783488,2016-08-12 05:32:29,@defunctzombie @brian_armstrong Please describe a scenario in which I as a creditor have a higher likelihood of repayment?
763921235377991680,2016-08-12 02:13:10,"@TheRealMage @dandolfa Well thats certainly what the thieves like to argue ;) Of course, nobody agrees on what is ""necessary"""
763858844329967616,2016-08-11 22:05:14,"@baijorge @bitfinex As someone who lost six figures in the Bitfinex hack, I think I have plenty of moral authority to explain my opinion."
763858666160173056,2016-08-11 22:04:32,"@lethos333 Don't confuse ""no fungibility"" with ""not always perfect fungibility in every situation"""
763858424161447936,2016-08-11 22:03:34,"@brian_armstrong Agree, there are certainly concerns and mistakes aplenty. I hope the execute the plan well, and victims regain most/all"
763854324438970368,2016-08-11 21:47:17,"@Coinmarketswot Yeah we've been dealing with it for months... we try to get every scam account shut down we can, and have posted about it"
763852052820746240,2016-08-11 21:38:15,"Important: there are scammers faking twitter accounts (not just fake ShapeShift, but other prominent figures/co's) https://t.co/HbNimINB91"
763800000476303360,2016-08-11 18:11:25,@paul_btc @Beautyon_ @ShapeShift_io Not sure what that is. All I know is I run a store and I don't want to accept stolen goods.
763789974512676864,2016-08-11 17:31:35,@baijorge @bitfinex You must imagine a scary world in which everyone who disagrees with you is funded by someone behind the curtain.
763788851873624064,2016-08-11 17:27:07,@dandolfa @9Nessa3 I don't suppose he considers the armed robbery by the state (taxation) to be violence. That hasn't gone down.
763788363870511104,2016-08-11 17:25:11,@dandolfa @deadalnix Agreed. This is the essence of decentralizing and reducing the coercive power of the state.
763788153639407616,2016-08-11 17:24:20,"@dandolfa @9Nessa3 It sounds like reducing violence is a priority we both hold dear, good to hear."
763782478515482624,2016-08-11 17:01:47,"@dandolfa @deadalnix The entire Federal Government could be abolished without diminishing ""useful govt spending."""
763782153872125954,2016-08-11 17:00:30,"@dandolfa @deadalnix Even if gov does something more efficiently (a rare situation indeed), it doesn't justify theft/coercion/violence."
763781979468800000,2016-08-11 16:59:48,"@dandolfa @deadalnix With gov, half my money is stolen regardless of my use of services. Huge difference to ""service fee"""
763781662148661258,2016-08-11 16:58:33,"@dandolfa @deadalnix Let's be frank... if ""roads"" were the only thing government did, there wouldn't be libertarians. That's 1% of gov."
763781364776701952,2016-08-11 16:57:22,@dandolfa @offbeatphotog The difference with government is you are forced into the community.
763780995287965696,2016-08-11 16:55:54,@dandolfa Didn't answer the question... what may the men vote from the woman? Anything?
763780724365287425,2016-08-11 16:54:49,@dandolfa @deadalnix I should pay for roads like any service or product I consume. Privatize roads should be no weirder than privatized cars
763778317191307264,2016-08-11 16:45:15,.@dandolfa And what of 5 men and 1 women on an island. What may they vote from her?
763777535196803072,2016-08-11 16:42:09,@SooMartindale @bitfinex Bankers were bailed out with tax money stolen from the public. Where is the parallel?
763777330472812544,2016-08-11 16:41:20,"@dandolfa @EdanYago Whether alternative is possible is debatable, but democracy should oversee as little human activity as possible."
763777034824790018,2016-08-11 16:40:10,".@dandolfa Taxation is theft. Spending money raised from sales of lottery tickets, however, is not theft (though lottery monopoly is wrong)"
763776666195726337,2016-08-11 16:38:42,".@dandolfa @EdanYago You overestimate the benevolence and wisdom of democracy, I'm afraid :)"
763773380273147904,2016-08-11 16:25:38,".@St011M1 @bitfinex If you were sure to get money back, then you dont get interest or profit. A bond is a risky asset, whether crypto or not"
763768354305748993,2016-08-11 16:05:40,"@jonmatonis @btc_joe @paul_btc @MrChrisEllis @petertoddbtc As a private vendor, we will not accept stolen property. What vendor would?"
763767911404023808,2016-08-11 16:03:54,"@haq4good @btc_joe @paul_btc @MrChrisEllis @petertoddbtc Theft is theft, is wrong, and should be corrected, regardless of government."
763767700912955392,2016-08-11 16:03:04,MoneyAndState | The Cryptobond and AutoPublic Companies https://t.co/XarbotWFQt @bitfinex #bitcoin #finance #blockchain
763751287385038848,2016-08-11 14:57:51,@btc_joe @paul_btc @MrChrisEllis @petertoddbtc Need more details
763748475569786881,2016-08-11 14:46:40,"@cukeking Where did I ever say or pretend that ""everything is going great with them""?"
763748231251496961,2016-08-11 14:45:42,"@NelsonMRosario @MirakhorHassan @dandolfa If your point is that things only get built because of that violent groups existence, then we dont"
763748100200542209,2016-08-11 14:45:11,"@NelsonMRosario @MirakhorHassan @dandolfa If your point is that there is almost always a violent group seeking to control others, I agree."
763747787523567616,2016-08-11 14:43:56,"@btc_joe @paul_btc @MrChrisEllis @petertoddbtc If clear that an address consists of stolen coins, yes we'll block. Clear has high threshold."
763747332252770305,2016-08-11 14:42:08,@SoundMechanic Opt out of fiat to avoid monetary debasement. Move to a different jurisdiction to avoid theft of earnings.
763608978056024066,2016-08-11 05:32:22,"@NelsonMRosario @MirakhorHassan @dandolfa ""prior to the state"" doesnt make sense. Does that mean prior to kings?"
763594517823971328,2016-08-11 04:34:54,"@NelsonMRosario @MirakhorHassan @dandolfa That a government existed while men built, does not imply the latter required the former."
763593581722349568,2016-08-11 04:31:11,@NelsonMRosario @dandolfa I imagine similar arguments were used against abolitionists... but from where our shirts but slaves!
763589437792006144,2016-08-11 04:14:43,.@NelsonMRosario @dandolfa minimal cooperation outside of a state? Cooperation only exists outside of a state. Else it is coercion.
763583109111492612,2016-08-11 03:49:34,.@dandolfa You assume men wouldnt build flat concrete surfaces without a coercive state?
763574250003243012,2016-08-11 03:14:22,"""Fiscal stimulus"" and ""accomodative monetary policy"" are but euphemisms for taking wealth from the future and spending it today. #delusion"
763573035886489600,2016-08-11 03:09:32,"RT @johnrobison: Really proud of my son Jack, co founder of @LBRYio whose cryptocurrency is now listed on @ShapeShift_io https://t.co/o6IDR‚Ä¶"
763523896041615360,2016-08-10 23:54:17,"@cukeking Yeah they did... and I mentioned that in my blog post. Amount we are owed by them is more than the investment amt, however."
763523641879310336,2016-08-10 23:53:16,RT @LoadDebitCard: Send #Swift or #Sepa via #LBRY #LBC $LBC thanks to @ErikVoorhees @ShapeShift_io and @LBRYio https://t.co/Zeb6GLA7Z1 http‚Ä¶
763511858451972096,2016-08-10 23:06:27,Very glad to see trading and withdrawals both available today at Bitfinex. I was able to withdraw BTC without issue. Good start to repair.
763471079314710528,2016-08-10 20:24:24,@mercen144 A hacker stole $72m... what plan do you have that is better to help resolve that reality?
763470855464624128,2016-08-10 20:23:31,@mercen144 1) Do u have evidence they stole something? 2) They have made a reasonable recovery plan vs alternative https://t.co/NAmTLzmFmS
763468539923615744,2016-08-10 20:14:19,@mercen144 Please explain your vitriol
763465475082760192,2016-08-10 20:02:08,"@defunctzombie @bitbitrage Definitely moral hazard there, not sure the best way to handle it."
763454256707870720,2016-08-10 19:17:33,@AceOfWallStreet @bitfinex applauded for turning a $72m loss into a $50m loss? Yes absolutely.
763453738493149186,2016-08-10 19:15:30,@DJThistle01 @bitfinex Explain why?
763449926416162817,2016-08-10 19:00:21,@x_ETHeREAL_x Then short it and profit
763449839480737793,2016-08-10 19:00:00,@a98718 @bitfinex It is both simple and correct.
763448348623777793,2016-08-10 18:54:05,.@bitfinex just reduced customer losses instantly by $26 million. That's the power of blockchain tokenization. #bitcoin
763447854081781761,2016-08-10 18:52:07,"@theonevortex @Technom4ge @alistairmilne That's irrelevant, it's traded on an open market now and has a real price at which you can sell."
763447627773902848,2016-08-10 18:51:13,"@CryptoHolmes @theonevortex @bitfinex No, 40%ish of the loss wiped out, because you get $0.40 for each dollar you lost (instead of $0.00)"
763446579323740164,2016-08-10 18:47:03,@theonevortex @Technom4ge @alistairmilne You can trade it immediately for BTC or fiat right now and withdraw. So the wealth gain is real.
763446382673874945,2016-08-10 18:46:16,@AceOfWallStreet @theonevortex @alistairmilne They are worth exactly $0.36 right now.
763446263513649152,2016-08-10 18:45:48,@theonevortex @bitfinex It's at $0.35-$0.40. Meaning 35-40% of the original 36% loss is wiped out for anyone takes that opportunity.
763445910990835713,2016-08-10 18:44:23,".@theonevortex @alistairmilne No, try again. Customers all had 36% loss to start. Then coin granted, valued at $0.40 currently, meaning 22%."
763443813188644864,2016-08-10 18:36:03,".@bitfinex has already reduced customer loss from 36% to more like 22% by issuing BFX token, which is tradable. Literally millions $ saved."
763400848026120193,2016-08-10 15:45:20,@BTCPuertoRico @bitsquare_ @brian_armstrong Read Machiavelli ;)
763397867662774272,2016-08-10 15:33:29,Chat and Send Money Using the New Bitwala Messenger https://t.co/u1X1ms1Zcn via @bitwala #bitcoin
763390375473979392,2016-08-10 15:03:43,RT @bitfinex: Bitfinex update regarding resumption of trading and withdrawals at 16:00 UTC: https://t.co/OFG3ZvvgzS
763375768801910784,2016-08-10 14:05:40,"RT @sharkybit: Excellent article, highly recommend, especially if you have been affected by the #bitfinex hack. #Bitcoin  https://t.co/auCi‚Ä¶"
763375606335549440,2016-08-10 14:05:02,@BTCPuertoRico @bitsquare_ @brian_armstrong They are not mutually exclusive. I support and encourage use of both.
763232257997803520,2016-08-10 04:35:25,@estebs @Omni_Layer @ShapeShift_io We like all useful innovation. No decision on BFX coin but I'm principle I'd like to.
